22

N      0.564251   -1.735907    0.021850
C      0.248212   -0.448975    0.106135
C      1.287786    0.466375    0.114392
C      2.599523    0.060371    0.038248
C      2.861098   -1.289397   -0.047296
C      1.824434   -2.203434   -0.055599
N      3.646217    1.012066    0.048228
C     -1.114949    0.041313    0.189049
N     -1.340369    1.333967    0.456120
C     -2.561653    1.862178    0.549006
C     -3.641213    1.034972    0.360492
C     -3.500195   -0.292365    0.084955
C     -2.194228   -0.784958    0.000735
H      1.077461    1.528496    0.181884
H      3.887158   -1.637013   -0.108522
H      2.044895   -3.277539   -0.124180
H      4.635678    0.741215   -0.114180
H      3.455038    2.014215    0.219048
H     -2.711188    2.918980    0.767846
H     -4.644397    1.447081    0.432245
H     -4.352211   -0.934280   -0.061536
H     -2.074889   -1.822896   -0.214592
