22
XYZ from PySCF
N           0.53722090       -1.73776931       -0.25413573
C           0.30705344       -0.36634735       -0.08683391
C           1.31085988        0.60439103        0.10112476
C           2.67068036        0.20544221        0.13240335
C           2.95103847       -1.17758218       -0.03313123
C           1.88259367       -2.07123047       -0.21666741
N           3.72543884        1.17253256        0.22701587
C          -1.14649505        0.06211017       -0.11420339
N          -1.38957714        1.42784024        0.06246326
C          -2.73225328        1.76749671        0.02744015
C          -3.79731510        0.86270370       -0.16509716
C          -3.50431307       -0.50385502       -0.33850936
C          -2.15999653       -0.90781228       -0.31241212
H           1.01028794        1.65262180        0.22225082
H           3.98612335       -1.53962805       -0.01598808
H           2.09849540       -3.14546817       -0.34325891
H           3.42297246        2.03437822        0.74099583
H           4.58550030        0.77747362        0.67738952
H          -2.94498978        2.84088459        0.16477130
H          -4.83298081        1.22595288       -0.17822067
H          -4.30868877       -1.23641196       -0.49086383
H          -1.85038285       -1.95382387       -0.44006102
