[Molden Format]
made by pyscf v[2.14.0]
[Atoms] (AU)
N   1   7     1.01502090210230    -3.28567027098008    -0.46067630081080
C   2   6     0.58081201090586    -0.69191441438576    -0.16130802354772
C   3   6     2.47893237450529     1.14349963965376     0.18204005768223
C   4   6     5.04852764796004     0.38968751061953     0.24488641484524
C   5   6     5.57662835644321    -2.22602607537096    -0.05218386096406
C   6   6     3.55722206314848    -3.91667643131619    -0.38738142113794
N   7   7     7.04231280769078     2.21754305700327     0.41173027769130
C   8   6    -2.16583298817316     0.11838903623813    -0.21479919704476
N   9   7    -2.62550329328154     2.69861600335599     0.12294359745177
C   10   6    -5.16282788378244     3.34025089048519     0.05664871687857
C   11   6    -7.17549422318952     1.63099797608344    -0.31005197618913
C   12   6    -6.62163911765605    -0.95106448201921    -0.64069849003996
C   13   6    -4.08112652138848    -1.71398006430235    -0.59160272502235
H   14   1     1.91160586496407     3.12583285119976     0.39960776019126
H   15   1     7.53242057243957    -2.91068006749983    -0.01650768366388
H   16   1     3.96446233267055    -5.94831724617836    -0.61376448814819
H   17   1     6.47120136569467     3.85219468626773     1.37297841820675
H   18   1     8.66757527601355     1.47547266565498     1.26640215445958
H   19   1    -5.56499799921505     5.36825999188665     0.31906185020036
H   20   1    -9.13259800360263     2.31747355081283    -0.33444737669695
H   21   1    -8.14146892779046    -2.33525959640545    -0.93046869713828
H   22   1    -3.49592063268135    -3.69043705908045    -0.83424505230014
[GTO]
1 0
 s    3 1.00
             99.106169    0.15432897032795
             18.052312    0.53532814113758
             4.8856602    0.44463454094486
 s    3 1.00
             3.7804559  -0.099967228443697
             0.8784966    0.39951282378033
             0.2857144    0.70011545910051
 p    3 1.00
             3.7804559    0.15591626853622
             0.8784966    0.60768371429493
             0.2857144    0.39195738632021

2 0
 s    3 1.00
             71.616837    0.15432897000916
             13.045096    0.53532814003178
             3.5305122     0.4446345400264
 s    3 1.00
             2.9412494  -0.099967230075964
             0.6834831    0.39951283030359
             0.2222899    0.70011547053201
 p    3 1.00
             2.9412494    0.15591627210511
             0.6834831    0.60768372820466
             0.2222899    0.39195739529202

3 0
 s    3 1.00
             71.616837    0.15432897000916
             13.045096    0.53532814003178
             3.5305122     0.4446345400264
 s    3 1.00
             2.9412494  -0.099967230075964
             0.6834831    0.39951283030359
             0.2222899    0.70011547053201
 p    3 1.00
             2.9412494    0.15591627210511
             0.6834831    0.60768372820466
             0.2222899    0.39195739529202

4 0
 s    3 1.00
             71.616837    0.15432897000916
             13.045096    0.53532814003178
             3.5305122     0.4446345400264
 s    3 1.00
             2.9412494  -0.099967230075964
             0.6834831    0.39951283030359
             0.2222899    0.70011547053201
 p    3 1.00
             2.9412494    0.15591627210511
             0.6834831    0.60768372820466
             0.2222899    0.39195739529202

5 0
 s    3 1.00
             71.616837    0.15432897000916
             13.045096    0.53532814003178
             3.5305122     0.4446345400264
 s    3 1.00
             2.9412494  -0.099967230075964
             0.6834831    0.39951283030359
             0.2222899    0.70011547053201
 p    3 1.00
             2.9412494    0.15591627210511
             0.6834831    0.60768372820466
             0.2222899    0.39195739529202

6 0
 s    3 1.00
             71.616837    0.15432897000916
             13.045096    0.53532814003178
             3.5305122     0.4446345400264
 s    3 1.00
             2.9412494  -0.099967230075964
             0.6834831    0.39951283030359
             0.2222899    0.70011547053201
 p    3 1.00
             2.9412494    0.15591627210511
             0.6834831    0.60768372820466
             0.2222899    0.39195739529202

7 0
 s    3 1.00
             99.106169    0.15432897032795
             18.052312    0.53532814113758
             4.8856602    0.44463454094486
 s    3 1.00
             3.7804559  -0.099967228443697
             0.8784966    0.39951282378033
             0.2857144    0.70011545910051
 p    3 1.00
             3.7804559    0.15591626853622
             0.8784966    0.60768371429493
             0.2857144    0.39195738632021

8 0
 s    3 1.00
             71.616837    0.15432897000916
             13.045096    0.53532814003178
             3.5305122     0.4446345400264
 s    3 1.00
             2.9412494  -0.099967230075964
             0.6834831    0.39951283030359
             0.2222899    0.70011547053201
 p    3 1.00
             2.9412494    0.15591627210511
             0.6834831    0.60768372820466
             0.2222899    0.39195739529202

9 0
 s    3 1.00
             99.106169    0.15432897032795
             18.052312    0.53532814113758
             4.8856602    0.44463454094486
 s    3 1.00
             3.7804559  -0.099967228443697
             0.8784966    0.39951282378033
             0.2857144    0.70011545910051
 p    3 1.00
             3.7804559    0.15591626853622
             0.8784966    0.60768371429493
             0.2857144    0.39195738632021

10 0
 s    3 1.00
             71.616837    0.15432897000916
             13.045096    0.53532814003178
             3.5305122     0.4446345400264
 s    3 1.00
             2.9412494  -0.099967230075964
             0.6834831    0.39951283030359
             0.2222899    0.70011547053201
 p    3 1.00
             2.9412494    0.15591627210511
             0.6834831    0.60768372820466
             0.2222899    0.39195739529202

11 0
 s    3 1.00
             71.616837    0.15432897000916
             13.045096    0.53532814003178
             3.5305122     0.4446345400264
 s    3 1.00
             2.9412494  -0.099967230075964
             0.6834831    0.39951283030359
             0.2222899    0.70011547053201
 p    3 1.00
             2.9412494    0.15591627210511
             0.6834831    0.60768372820466
             0.2222899    0.39195739529202

12 0
 s    3 1.00
             71.616837    0.15432897000916
             13.045096    0.53532814003178
             3.5305122     0.4446345400264
 s    3 1.00
             2.9412494  -0.099967230075964
             0.6834831    0.39951283030359
             0.2222899    0.70011547053201
 p    3 1.00
             2.9412494    0.15591627210511
             0.6834831    0.60768372820466
             0.2222899    0.39195739529202

13 0
 s    3 1.00
             71.616837    0.15432897000916
             13.045096    0.53532814003178
             3.5305122     0.4446345400264
 s    3 1.00
             2.9412494  -0.099967230075964
             0.6834831    0.39951283030359
             0.2222899    0.70011547053201
 p    3 1.00
             2.9412494    0.15591627210511
             0.6834831    0.60768372820466
             0.2222899    0.39195739529202

14 0
 s    3 1.00
            3.42525091    0.15432897070298
            0.62391373    0.53532814243847
             0.1688554    0.44463454202535

15 0
 s    3 1.00
            3.42525091    0.15432897070298
            0.62391373    0.53532814243847
             0.1688554    0.44463454202535

16 0
 s    3 1.00
            3.42525091    0.15432897070298
            0.62391373    0.53532814243847
             0.1688554    0.44463454202535

17 0
 s    3 1.00
            3.42525091    0.15432897070298
            0.62391373    0.53532814243847
             0.1688554    0.44463454202535

18 0
 s    3 1.00
            3.42525091    0.15432897070298
            0.62391373    0.53532814243847
             0.1688554    0.44463454202535

19 0
 s    3 1.00
            3.42525091    0.15432897070298
            0.62391373    0.53532814243847
             0.1688554    0.44463454202535

20 0
 s    3 1.00
            3.42525091    0.15432897070298
            0.62391373    0.53532814243847
             0.1688554    0.44463454202535

21 0
 s    3 1.00
            3.42525091    0.15432897070298
            0.62391373    0.53532814243847
             0.1688554    0.44463454202535

22 0
 s    3 1.00
            3.42525091    0.15432897070298
            0.62391373    0.53532814243847
             0.1688554    0.44463454202535

[5d]
[7f]
[9g]

[MO]
 Sym= A
 Ene=    -14.16572695
 Spin= Alpha
 Occup=    2.00000
   1    2.8316575348634e-05
   2    3.8061514427641e-05
   3    1.4392046457281e-06
   4    1.3269057868334e-07
   5    2.0219017344665e-06
   6    4.6814474542853e-06
   7    2.1139234609773e-05
   8    -4.0824615074432e-05
   9    7.4631137100169e-05
  10    -2.5616798432081e-06
  11    -1.783472137216e-05
  12    0.00028599519329739
  13    0.00031554808155769
  14    0.00038448625820878
  15    9.2792999161749e-05
  16    0.00058879988538523
  17    -0.0066617423539851
  18    -0.0043247960336598
  19    -0.0039629287932352
  20    -0.00050111411451871
  21    -1.7598176705698e-05
  22    0.00028050801438745
  23    0.00041059016016034
  24    0.0002683744921368
  25    8.5980242517215e-05
  26    5.0726989659544e-06
  27    1.8678015828598e-05
  28    7.0467435765429e-05
  29    -5.1372179721308e-05
  30    -1.1830197979755e-05
  31      0.99239622703917
  32     0.036330417386221
  33    -0.0012758012917925
  34    -0.0013503985170763
  35    0.0039266115299297
  36    1.1929767607277e-06
  37    -1.6428626515837e-05
  38    -1.4382143353236e-05
  39    -1.1527254631096e-06
  40    9.8900201994128e-08
  41    -5.4247536858611e-06
  42    3.1371706861554e-07
  43    -2.0385914976689e-06
  44    -1.1091063355555e-06
  45    -4.1037648617618e-07
  46    4.9073152256813e-08
  47    -6.5067907782952e-07
  48    -4.1718927835229e-07
  49    5.2535817722403e-07
  50    4.5886246168062e-08
  51    3.237100319316e-09
  52    5.741504234259e-08
  53    -1.6709829697075e-08
  54    5.1054542215848e-08
  55    -7.6259628426224e-09
  56    -3.9718700676144e-09
  57    2.3148828869115e-07
  58    1.4201886651217e-07
  59    -5.4482108076722e-08
  60    -1.0926660922936e-08
  61    2.7640795572002e-08
  62    -6.8616461631736e-07
  63    4.2556221936479e-07
  64    -1.4571791080636e-06
  65    -2.2626131282761e-07
  66    -4.7808857207002e-06
  67    -1.1247424423701e-05
  68    -2.3725561311437e-05
  69    -0.0078328754451531
  70    -0.0078336357564821
  71    -7.0950613077354e-08
  72    -3.0858035731558e-08
  73    -1.0355012830967e-08
  74    -5.7787615559615e-07
 Sym= A
 Ene=     -14.1274586
 Spin= Alpha
 Occup=    2.00000
   1    -0.00064441888442422
   2    -5.3098334330652e-05
   3    7.6460563309369e-05
   4    -1.6213426860325e-05
   5    2.7811425299982e-06
   6    -1.1073908876556e-05
   7    0.00034136461214303
   8    -1.1129078722348e-05
   9    0.00031500751747155
  10    4.3259262914428e-05
  11    -5.8446957315983e-06
  12    0.00013945642683752
  13    0.00020663247831544
  14    0.00022602313787467
  15    3.7345132608932e-05
  16    4.7770469967851e-06
  17    -6.8210295085898e-05
  18     4.63873806624e-05
  19    -3.1573170730971e-05
  20    -1.4195927390584e-07
  21    -1.9954144396636e-07
  22    5.2999589004339e-07
  23    -7.0241378322282e-06
  24    -1.0284109768898e-07
  25    -5.269732425553e-07
  26    3.3795354555249e-07
  27    -9.8638645360415e-06
  28    6.8724029062434e-06
  29    1.0708719972966e-07
  30    3.315416668335e-07
  31    5.849523554902e-06
  32    -1.7791693179987e-06
  33    -6.0033734887356e-06
  34    -5.0720840680374e-06
  35    -4.3820408431062e-06
  36    0.00063037263665933
  37    -0.0076351456364649
  38    0.0014140650930468
  39    -0.0062371644046074
  40    -0.00079794470387463
  41      0.99263650437336
  42     0.034572102533207
  43    -0.0047750250043321
  44    -0.004243749869496
  45    -0.00089844131841986
  46    0.00062714361478205
  47    -0.007806656570375
  48    -0.0062532689953187
  49    0.0019380818136965
  50    -0.00011280610726467
  51    -2.4944056846514e-05
  52    0.00037620692929832
  53    0.0005281178351567
  54    -0.00030933442612573
  55    -1.1122008124231e-05
  56    7.0597049008186e-06
  57    -0.00025925349717118
  58    -4.417916754236e-05
  59    -4.713263296857e-05
  60    -9.4535437768906e-06
  61    -2.5186998476607e-05
  62    0.00038314724069193
  63    -0.00023813922259759
  64    0.00053665580533712
  65    6.1444461775376e-05
  66    -0.00067924678416956
  67    1.4309395450262e-06
  68    1.5252927688842e-06
  69    2.2405124103103e-05
  70    8.7440601557748e-08
  71    0.00015490378836199
  72    4.6908050675327e-05
  73    1.9303348625359e-05
  74    4.4419438331941e-05
 Sym= A
 Ene=    -14.11224196
 Spin= Alpha
 Occup=    2.00000
   1      0.99263336020749
   2     0.034559915396084
   3    0.0048238248614589
   4    0.0042662979222411
   5    0.00082389703015113
   6    0.0006296219839211
   7    -0.0076051012837221
   8    -0.0013284700381289
   9    0.0062648291612526
  10    0.00070580366299792
  11    -2.5238671504806e-05
  12    0.00036012005388387
  13     0.000261659464102
  14    -0.00054344445964253
  15    -5.2434276759147e-05
  16    6.9325915996422e-06
  17    -0.00025540963810457
  18    4.0936058212565e-05
  19    4.3095186360646e-05
  20    8.6783222230232e-06
  21    -2.4949869014991e-05
  22    0.00035384252052518
  23    -0.00052861428297063
  24    0.00033251019521215
  25    9.9463595529167e-06
  26    0.0006262958905146
  27    -0.007791095307231
  28    0.0062735192960099
  29    -0.0018927430159583
  30    0.00013851245641286
  31    -3.1464808435522e-05
  32    1.4681930622406e-05
  33    -7.794392134825e-06
  34    -7.4235426012898e-06
  35    -1.0677390005677e-06
  36    -9.6874158127804e-06
  37    0.00033558683880832
  38    2.0890055762005e-05
  39    -0.00031448748355767
  40    -3.9244238875955e-05
  41    0.00066134014057734
  42    -8.9423754022797e-06
  43    -8.201912033786e-05
  44    1.1030675768616e-05
  45    -2.9126688830996e-06
  46    1.1484853141097e-06
  47    -1.9971470454421e-05
  48    -1.4785944946356e-05
  49    2.5183756081375e-06
  50    -6.9125169484031e-07
  51    -2.3701541202127e-07
  52    9.1240848212443e-07
  53    7.829704937247e-06
  54    5.8875511142054e-08
  55    4.411302741636e-07
  56    5.0724241546888e-06
  57    -7.4470611337577e-05
  58    -4.5151976868246e-05
  59    3.4308080298539e-05
  60    2.6666716049053e-06
  61    -6.6176631171389e-06
  62    0.0001527756873919
  63    -0.00020650683249541
  64    -0.00022591161545176
  65    -4.8004462219258e-05
  66    5.303693808927e-05
  67    5.4945883479512e-05
  68    0.00015993328955339
  69    1.7730841044073e-06
  70    1.4530609072448e-06
  71    1.7164951183842e-06
  72    1.3092330367476e-06
  73    1.5820484096605e-05
  74    -0.00069782908611864
 Sym= A
 Ene=    -10.06532517
 Spin= Alpha
 Occup=    2.00000
   1    2.0551421268353e-06
   2    1.2239276073773e-05
   3    -1.9020224744693e-05
   4    -2.0186685334241e-05
   5    -3.0549739026349e-06
   6    -0.00083264079729589
   7    0.00026359369203603
   8    9.7028993862859e-05
   9    0.00010523042538001
  10    1.7726578552453e-05
  11    -0.0053252083293946
  12    -0.009345177327499
  13    -0.0059571143601115
  14    0.0017506310385366
  15    -0.00010741449046892
  16       0.9906640356598
  17     0.042960710041617
  18    -0.0010119354815406
  19    -0.00084661790700162
  20    -0.00049898510837742
  21    -0.0057978030347046
  22    -0.0093037823381786
  23    0.0012235506869807
  24    -0.0060372609361397
  25    -0.00064711341359959
  26    -0.00069160570211131
  27    0.00026559686689493
  28    0.00011141053977498
  29     7.98495607821e-05
  30    1.5576912696109e-05
  31    0.0007388066409775
  32    -0.0067471565684196
  33    0.0036996014052918
  34    0.0033772616548912
  35    0.00052627596465157
  36    -0.0003667337465975
  37    -8.1809731335843e-05
  38    -6.7181351215625e-05
  39    -3.6583605465708e-05
  40    -8.5087695447796e-06
  41    5.3710278250981e-06
  42    -1.1474510649296e-05
  43    -4.3037390289064e-05
  44    -8.0983812601271e-06
  45    -3.3913732709359e-06
  46    -6.4879425571837e-06
  47    -8.5207496930507e-06
  48    -6.1397984247737e-06
  49    3.6867437477487e-06
  50    6.5791915638781e-08
  51    1.8439436557646e-07
  52     4.58928038111e-07
  53    5.0081193559867e-07
  54    -1.1524930460134e-07
  55    2.244117741637e-08
  56    3.3555698530195e-07
  57    5.3969712880333e-07
  58    5.7884943040715e-07
  59    1.9172490950425e-07
  60    6.7596235365915e-08
  61    -2.9511823195551e-06
  62    -7.5430053201098e-06
  63    -2.276247215496e-06
  64    -6.9411729440861e-06
  65    -1.2363063534457e-06
  66    0.00017429431069377
  67    0.0001708179793371
  68    -9.0192252126808e-05
  69    -0.00053456828212698
  70    -0.00054028889658524
  71    -1.9197159079166e-08
  72    5.5418224918275e-09
  73    2.3593741857196e-08
  74    -1.6075021974501e-06
 Sym= A
 Ene=    -10.04533005
 Spin= Alpha
 Occup=    2.00000
   1    -9.5349437525231e-05
   2    0.0012007876801003
   3    -0.00016254658109767
   4    0.0007534132041327
   5    8.3587922137042e-05
   6     -0.11990788271362
   7    -0.012770181385732
   8    0.0054082767183549
   9    -0.0016407668531259
  10    9.5869153123613e-05
  11    0.00062395487654477
  12    0.0014158523028993
  13    -0.00059911512942808
  14    -0.00048678870576652
  15    -9.4546941062127e-05
  16    0.00028082879861391
  17    -0.00010790507717352
  18    8.3835525831913e-05
  19    3.0177745399015e-05
  20    8.9002001662137e-06
  21    2.865868593235e-05
  22    1.1377743453511e-05
  23    -1.6747978427964e-06
  24    9.0002652041784e-06
  25    1.099518951397e-06
  26    0.00028982929150531
  27    -3.6861374136856e-05
  28    1.8940546336345e-05
  29    -1.880981316599e-05
  30    -6.2173497416279e-07
  31    2.6064204228623e-07
  32    -5.4537326473308e-06
  33    -4.1768413135688e-06
  34    3.9047475827693e-06
  35    -2.2427717014113e-06
  36       0.9831296532781
  37     0.042745069969187
  38    3.2142031696303e-05
  39    -0.00059879119993208
  40    -8.043197742136e-05
  41    0.0007383087539871
  42    -0.0073395657956355
  43    -0.0010440565661807
  44    0.0048325115238611
  45    0.00062095622324354
  46     -0.01385455872568
  47    -0.00090815126314087
  48    -0.00020629830676935
  49    0.00061926606828207
  50    7.5219893065798e-05
  51    -0.0011238301660032
  52    4.7169708043793e-05
  53    -0.00014965953271032
  54    0.00021397819966462
  55    2.1138235490508e-05
  56    -0.00089035363283928
  57    0.00041340723321858
  58    0.00013653333694259
  59    -1.9698404948592e-05
  60    5.7848648988921e-06
  61    -0.010431468647413
  62    -0.0094596734272688
  63    -0.0042624223670053
  64     -0.00429909224087
  65    -0.00087042432234666
  66    -0.00025134078964005
  67    -4.2698134374639e-07
  68    5.2380078921033e-06
  69    1.1683140366998e-05
  70    8.7320897654071e-07
  71    -7.9790585488469e-05
  72    -8.609878894785e-05
  73    -0.00010036949984564
  74    0.00022563413613576
 Sym= A
 Ene=     -10.0411109
 Spin= Alpha
 Occup=    2.00000
   1    0.00073477942693619
   2    -0.0072007523404131
   3    0.00097362891512299
   4    -0.0047777832514737
   5    -0.00054298523913352
   6      0.98333597765123
   7     0.040942727996269
   8    0.0012679819492889
   9    0.00035759310056634
  10    0.00013923553398589
  11    -0.0086236911666896
  12    -0.0094531486828635
  13    0.0042447901374802
  14    0.0043547062209431
  15    0.0007972996248063
  16    0.00083639821615013
  17    0.00044839997406857
  18    -0.00011410085952718
  19    3.7767899185863e-05
  20    -6.1774311064508e-06
  21    -0.00098230262788831
  22    4.2392252036165e-05
  23    0.00015671191556674
  24    -0.00022868681740761
  25    -1.9122619349564e-05
  26    -0.012752780236895
  27    -0.00091123583154009
  28    0.00022224459853126
  29    -0.00068170564786833
  30    -7.2346790405168e-05
  31    1.303495111094e-05
  32    -8.6883395336033e-05
  33    8.1125062510327e-05
  34    2.3513481887142e-05
  35    7.0900251760674e-06
  36      0.12134059075644
  37    -0.0025311252688257
  38    -0.0055892027732532
  39    0.0015169553128118
  40    -0.00012963437966547
  41    8.1367424245248e-05
  42    -0.00055474407686439
  43    -8.2565004177964e-05
  44    0.00043009405269966
  45    5.4514131314036e-05
  46    -0.0063116134272636
  47    -0.00039713127806077
  48    -6.6694060609224e-05
  49    0.00017869834235535
  50    2.1410735125014e-05
  51    -0.00022600302377554
  52    6.1499955871289e-05
  53    -1.8960939264088e-05
  54    5.2379368046159e-05
  55    6.2767426063261e-06
  56    -0.00058366083653495
  57    -3.8138558680021e-05
  58    -4.9859240929526e-05
  59    -3.8717809948763e-05
  60    -8.9035217383768e-06
  61    -0.0018791823808979
  62    -0.00090454815830075
  63    -0.00044099811442384
  64    -0.00058063319053127
  65    -0.00010727417855836
  66    0.00016222070131726
  67    -9.2564531597866e-05
  68    -0.00010302846138812
  69    -3.3098678522383e-05
  70    -4.6183420506066e-06
  71    1.3172437173737e-05
  72    -2.2857364584752e-05
  73    -1.8198385224899e-05
  74    -0.0001998421870391
 Sym= A
 Ene=    -10.03730705
 Spin= Alpha
 Occup=    2.00000
   1    3.673301540961e-06
   2    -2.7532286885804e-05
   3    2.1459836920222e-06
   4    -2.1563278879766e-05
   5    -2.5449667211721e-06
   6    0.0046089340532707
   7    -7.1309269284076e-05
   8    0.0002056514358019
   9    -6.0472063761203e-05
  10    3.9080846727646e-06
  11    -0.00010979308460673
  12    -4.6414943141819e-05
  13    3.3571301152083e-05
  14    2.2269542794345e-05
  15    4.5142549016589e-06
  16    1.6087145780545e-05
  17    -2.4490461640005e-06
  18     4.00950577187e-06
  19    1.0292521309547e-06
  20    4.1050707623499e-07
  21    -8.3121956980276e-06
  22    1.4917579390687e-06
  23    9.7715006484331e-07
  24    -2.0299397809759e-06
  25    -1.9710135528025e-07
  26    -0.00017219492845696
  27    -1.1950002482119e-05
  28    2.1996820481913e-06
  29    -6.8108255325348e-06
  30    -7.1177664092716e-07
  31    1.6075382161282e-07
  32    -1.2388819281188e-06
  33    5.4569750084767e-07
  34     3.82749362397e-07
  35    -1.2333016865013e-07
  36     0.014730631585036
  37    0.00025255708200758
  38    0.00058692595262016
  39    -0.00026953601974566
  40    -1.7563593808473e-06
  41    0.00074746439477877
  42    -0.0076678474517569
  43    0.0047832653697575
  44    -0.0012296651949392
  45    0.00012191799743629
  46      0.99050314410557
  47     0.042432138148051
  48    -0.00039254001484486
  49    -0.00079176496084213
  50    -0.00013507680065957
  51    -0.017002504153581
  52    -0.0097999951545709
  53    -0.0047817866761603
  54    -0.0037991601166949
  55    -0.00083435158436442
  56    -0.0016400271302451
  57    0.00044490924912183
  58    -4.0925198611964e-05
  59    0.0001481236964065
  60    1.8342219380129e-05
  61    -0.0018130897171309
  62    -0.00024448654775815
  63    8.445396471912e-05
  64    -0.00032328942939695
  65    -4.0600440998417e-05
  66    -1.9103939474829e-05
  67    -8.8613804045371e-07
  68    -2.3656710110876e-07
  69    6.2313958388265e-07
  70    1.0033444948596e-08
  71    -0.0090122342307696
  72    0.00028569846577403
  73    -0.00010973229962549
  74    -8.984426929876e-05
 Sym= A
 Ene=    -10.03184022
 Spin= Alpha
 Occup=    2.00000
   1    0.00074236744135908
   2    -0.0075922147942308
   3    -0.0047613013657606
   4    0.0012167489630308
   5    -0.00013485852749116
   6      0.01292854407503
   7    0.0001716823798066
   8    -0.00064644899304468
   9    0.0002899167637883
  10    -1.8746501216075e-06
  11    -0.0015623672844216
  12    -0.00022864903881464
  13    -0.00011123508312347
  14    0.00031374962677735
  15    3.3174283750331e-05
  16    0.00064289301953663
  17    0.00050107309950264
  18    4.2593260192317e-05
  19    -0.000133920677484
  20    -1.815752579002e-05
  21    -0.013043946067355
  22    -0.0097498625449243
  23     0.004831604853541
  24    0.0037794367357477
  25    0.00076645648594054
  26      0.99060113882507
  27     0.042464035323314
  28    0.00052181415008311
  29    0.00075422477227326
  30    0.00014653790667374
  31    1.3934855500596e-05
  32    -9.4420331363455e-05
  33    3.4556415259365e-05
  34    8.2484589934954e-05
  35    1.1459693116385e-05
  36    0.0013011639680169
  37    -0.00020500767332479
  38    -0.00019969973308881
  39    5.9759831441423e-05
  40    -3.5252029677434e-06
  41    1.3868904721903e-06
  42    -5.4754955437982e-06
  43    2.3848184895918e-06
  44    5.4492494740296e-06
  45    9.0408662297127e-07
  46    9.4942833236953e-05
  47    9.943799258631e-07
  48    -1.4452049540255e-06
  49    4.1077876574163e-06
  50    4.8933308901955e-07
  51    -1.295991305724e-05
  52    -5.6401135451251e-07
  53    -1.457215417846e-06
  54    3.1287870642092e-08
  55    -9.1734243051599e-08
  56    -4.357178635575e-05
  57    -5.8861099770253e-06
  58    -3.9487977744851e-06
  59    -8.4642901811999e-07
  60    -3.1744916971262e-07
  61    -0.00013607930393969
  62    -1.6710069706224e-05
  63    -1.9629081861983e-05
  64    -8.1819164578496e-06
  65    -2.6309701581144e-06
  66    -9.3367577556687e-05
  67    0.00026018157077908
  68    -0.0090284365237623
  69    -5.4292430398345e-06
  70    -3.3699250741247e-05
  71    -1.8896930113902e-06
  72    -4.6045209703348e-07
  73    -1.1393264601586e-08
  74    -1.9756670983787e-05
 Sym= A
 Ene=    -10.02356799
 Spin= Alpha
 Occup=    2.00000
   1    6.5173320260838e-06
   2    -2.1200524647208e-05
   3    4.5392616092174e-05
   4    7.0005436376033e-06
   5    4.0410818856536e-06
   6    0.00046941110429982
   7    -6.7447939139862e-05
   8    8.1009893431972e-05
   9    3.3626228939867e-05
  10    9.6853674983127e-06
  11    -1.3084657670666e-05
  12    -1.3433202764463e-05
  13    3.4455101736299e-06
  14    1.1041904159377e-05
  15    1.5126924479746e-06
  16    5.8581725729778e-08
  17    1.1875510508747e-06
  18    -8.3017169541143e-07
  19    4.0555299744129e-08
  20    -4.8961869195328e-08
  21    -2.5408060454987e-06
  22    -5.0060423369361e-09
  23    -5.4797463588595e-08
  24    9.226890152447e-08
  25    1.4260980813215e-08
  26    3.2728749576769e-05
  27    -6.7798109857491e-06
  28    6.0725918787998e-06
  29    -4.5601825225233e-06
  30    -2.7845743251653e-07
  31    1.5537987805889e-08
  32    -6.2309026109411e-08
  33    1.2733680264337e-07
  34    -1.9848101305333e-08
  35    8.6173075173751e-09
  36    0.00057474457798161
  37    0.00057083064281648
  38    -0.00021389868738583
  39    -0.0002284965421584
  40    -4.5417052565573e-05
  41    7.0762627732027e-06
  42    -3.001646997033e-05
  43    4.4271954782074e-05
  44    4.4700864581809e-05
  45    9.0438491250114e-06
  46    0.00061824795360464
  47    0.00078725750929155
  48    -0.0003566837768217
  49    -0.00026882442720601
  50    -6.0199050636335e-05
  51     -0.05298814476955
  52    -0.011654550143377
  53    -0.0015079437113712
  54     0.006085047560827
  55    0.0007665957213608
  56      0.98863301089342
  57     0.044788004190544
  58    0.0013672456362488
  59    0.0013615923854189
  60    0.00027668912402368
  61    -0.029547038762458
  62    -0.010692799015748
  63    0.0059964603300649
  64    -0.0019786048328008
  65    9.0721701824418e-05
  66    -1.7846046214949e-06
  67    -7.4190114546421e-08
  68    -8.0255469653606e-07
  69    -6.0798659266996e-08
  70    4.5106364301316e-09
  71    -0.00011657536437473
  72    0.00063963016797412
  73    -0.008924038453559
  74    0.00043138407700956
 Sym= A
 Ene=    -10.01692277
 Spin= Alpha
 Occup=    2.00000
   1    -1.2261738997205e-07
   2    2.153859415741e-06
   3    -1.5252151923468e-06
   4    1.0428424330896e-06
   5    3.7367345747752e-08
   6    0.00019673048692154
   7    -6.4414441794365e-05
   8    5.7826436254163e-05
   9    -6.8480484127407e-06
  10    2.5190321570641e-06
  11    7.4658111391824e-06
  12    -1.3347400225806e-06
  13    -1.975118458517e-06
  14    4.1213901642537e-06
  15    4.0982114914528e-07
  16    5.7536629069727e-07
  17    6.6772500150661e-07
  18    -2.0436040261557e-07
  19    3.5297121806687e-07
  20    2.4342591684809e-08
  21    -7.7548600122727e-06
  22    -4.2711077814726e-07
  23    4.1171913772684e-07
  24    -1.93624291884e-07
  25    8.9236533616138e-10
  26    8.3463770942143e-06
  27    -2.3545065219401e-07
  28    2.8623405893377e-07
  29    -1.0536197232575e-06
  30    -1.1255588107827e-07
  31    1.6998778298451e-08
  32    -1.2082840476525e-07
  33    9.9348712346319e-08
  34    3.3937287426412e-08
  35    7.0664629753508e-09
  36    0.0014158485569733
  37    -5.0265366251587e-05
  38    0.00021623891449079
  39    -0.00018425742671745
  40    -1.2688572735734e-05
  41    -1.9944653823438e-05
  42    0.00026927828613544
  43    -0.00015223695763519
  44    -0.00024626783078062
  45    -4.4312500145306e-05
  46     0.018441921194298
  47    -0.0084967445830473
  48    0.0046080714876401
  49    0.0041296404006112
  50    0.00087004727972735
  51      0.98900951177413
  52     0.043333573907668
  53    0.0013541251328976
  54    -0.00023485470838245
  55    5.200547052698e-05
  56     0.054109767512111
  57    -0.0067914797956316
  58    0.0013081640758563
  59    -0.0060616867957184
  60    -0.00077590637399666
  61    -0.0090365131062587
  62    -0.00058399401276164
  63    0.00023887513099082
  64    -6.9690314060058e-05
  65    4.9514848242719e-06
  66    -7.8175299368543e-07
  67    -7.573264312511e-08
  68    -3.3735570184716e-07
  69    -2.5541342982743e-08
  70    3.9133190434006e-10
  71    -1.3930756170677e-05
  72    -0.0089354475954812
  73    -0.00033489723340439
  74    -6.2206999539879e-06
 Sym= A
 Ene=    -10.01208543
 Spin= Alpha
 Occup=    2.00000
   1    -8.4976280105191e-07
   2    6.6838382893747e-05
   3    4.0548020214079e-05
   4    -0.00010407681261937
   5    -1.2692365418157e-05
   6    0.00064272038715762
   7    0.00021134337084631
   8    -1.9394998504628e-05
   9    4.5616854243729e-06
  10    -5.5130621661042e-07
  11    -0.00088819109698622
  12    -0.00011879047163094
  13    8.8575382770056e-05
  14    1.2508575594808e-05
  15    5.7572908555408e-06
  16    3.1437962962847e-06
  17    -4.7209740600717e-06
  18    3.435442993161e-06
  19    -2.8336606962927e-06
  20    7.3331738525557e-08
  21    1.2344286750618e-05
  22    -1.7246455097246e-06
  23    -8.3206627237909e-07
  24    2.1792763007715e-06
  25    1.9406237927028e-07
  26    0.00012044309552193
  27    -3.2820482850919e-05
  28    2.9950139466598e-05
  29    1.0913665279961e-06
  30    2.0868665686201e-06
  31    3.2107772607064e-08
  32    -2.8686831890151e-07
  33    -1.8741746167325e-07
  34    -7.159774935656e-08
  35    -1.6882523447285e-07
  36     0.012077468946114
  37    -0.0087693687793469
  38    0.0045989607773815
  39    0.0041566658881698
  40    0.00087021614284535
  41    -2.5465020010568e-05
  42    0.00034105547707602
  43    -0.00024413753568438
  44    -0.00017260561508173
  45    -3.9556783611411e-05
  46    0.0019276722227083
  47    -0.00019996502230785
  48    -9.2276437925759e-05
  49    0.00032065903496017
  50    3.9566294794387e-05
  51    0.0074507663113001
  52    0.00036988550590666
  53    -1.4481379117901e-06
  54    9.1966494416215e-05
  55    1.2915928084914e-05
  56     0.031382243471449
  57    -0.0080225813299416
  58    -0.0060030856599186
  59    0.0016742079528517
  60    -0.00013429302619794
  61       0.9900647310775
  62     0.043626396388372
  63    -0.0001738672450565
  64    0.0015030636910821
  65    0.00020270567421799
  66    -9.6237539463255e-06
  67    2.4360875499425e-07
  68    6.6528713812362e-06
  69    8.1520548013286e-07
  70    -4.298348671309e-08
  71    -9.4809491021768e-05
  72    -0.00016503654173294
  73    -0.00013750743280644
  74    -0.0089094718686023
 Sym= A
 Ene=     -10.0063609
 Spin= Alpha
 Occup=    2.00000
   1    -2.4532403008808e-05
   2    0.00030214516956411
   3    0.00017288174819909
   4    0.00024848933545127
   5    4.1950617466201e-05
   6     0.001149055457971
   7    -8.7063044820649e-05
   8    -0.00022770995385463
   9    0.00017651691419209
  10    8.3458145918968e-06
  11    -0.0072567422305765
  12    -6.8672903868098e-05
  13    4.7504476155557e-05
  14    -4.2971116097713e-06
  15    1.3710910217761e-06
  16    0.0071993939308029
  17    -0.0088372227149821
  18    -0.0012455424517493
  19    0.0060978618075079
  20    0.00069804510739915
  21      0.99045928918175
  22     0.043886626424233
  23    -0.0013977000500706
  24    0.00047871219708327
  25    -4.5063905597111e-07
  26     0.014415804251577
  27    -0.0087667591169328
  28    -0.0046646749674974
  29    -0.0041165827359639
  30    -0.00080408479456333
  31    -1.9476473557123e-05
  32    0.00034770709889198
  33    2.6724940948972e-05
  34    -0.00019377286436062
  35    3.0835955454193e-05
  36    0.00011209543467552
  37    -6.2082529623925e-05
  38    -5.3122475736861e-05
  39    7.9576949372372e-06
  40    -1.851061631347e-06
  41    -4.7571488330555e-07
  42    3.553816946803e-06
  43    3.7936465915845e-06
  44    -8.4989219563387e-07
  45    7.1903345907313e-08
  46    3.4275968764631e-06
  47    -1.2241725512612e-07
  48    1.0826323631378e-07
  49    7.9524750714678e-07
  50    1.1963899576842e-07
  51    7.1290075254499e-06
  52    2.4247554933144e-07
  53    -3.6483853310959e-07
  54    1.8734863937479e-07
  55    3.3558680615693e-10
  56    1.1686811206908e-06
  57    8.1016358050656e-07
  58     3.81603050512e-07
  59    -4.9191482744117e-07
  60    -4.730968277639e-08
  61    -2.2507475642477e-05
  62    -1.6410858669865e-06
  63    2.3735198408135e-06
  64    -3.3469027834083e-06
  65    -3.4614488210112e-07
  66    -3.2742425485144e-05
  67    -0.0089826312660739
  68    2.7407627958152e-05
  69    -6.9028420788592e-05
  70    -0.00017757654502089
  71    -2.392471334284e-07
  72    -1.9277213300932e-07
  73    -1.6076966176743e-07
  74    -2.5187736655654e-07
 Sym= A
 Ene=    -10.00256332
 Spin= Alpha
 Occup=    2.00000
   1    -2.8441097059139e-05
   2    0.00035749216149565
   3    0.00024944870451643
   4    0.00018119490783676
   5     3.79587766389e-05
   6     0.010078217487432
   7    -0.0089675840592592
   8    -0.0045956291119185
   9    -0.0042062455567737
  10    -0.00080497282523347
  11      0.99050908976661
  12     0.043927786566598
  13    0.00025686847426805
  14    -0.0015194277160402
  15    -0.00014606836939043
  16    0.0068228812438183
  17    -0.0090270289138341
  18    0.0059875156911883
  19    -0.0016825197637563
  20    0.00016206820878326
  21    0.0072462757572232
  22    0.00058307532800705
  23    -1.3605533448855e-05
  24    5.7637124356694e-05
  25    5.8777462401535e-06
  26    0.0016386257783033
  27    -0.00021481550973469
  28    9.3335990351634e-05
  29    -0.0003212784580128
  30    -3.447536091566e-05
  31    -2.0333491927489e-05
  32    0.00036497133470471
  33    -0.00018470538669161
  34    3.7243852489599e-05
  35    5.1187167294512e-05
  36    0.0004774922312502
  37    0.00020437998836042
  38    3.3661696500948e-05
  39    -1.9685287940045e-05
  40    -7.8672365512914e-07
  41    -5.1752913150509e-07
  42    6.8662035190106e-05
  43    -4.8456300905263e-05
  44    9.7783857807209e-05
  45    8.6928130775268e-06
  46    7.1265400939754e-05
  47    -3.632717889059e-05
  48    -3.0871506186021e-05
  49    1.8598522840869e-07
  50    -1.7519594233934e-06
  51    -4.6959047013316e-06
  52    -1.5165028716712e-06
  53    1.455729588577e-06
  54    -1.7894958868118e-06
  55    -1.8557306756378e-07
  56    3.7500935900941e-05
  57    -1.9707466332651e-05
  58    -1.3702617723769e-05
  59    6.5854662728859e-06
  60    2.2899456821842e-07
  61    0.00089675555366321
  62    -4.2018366104956e-05
  63    -8.9396996908046e-05
  64    -1.1059233656796e-05
  65    -7.8619791777629e-06
  66    -0.0089508720706427
  67    -0.00016985591954529
  68    -9.0312714568121e-05
  69    -0.00020836041024754
  70    -6.982700370616e-05
  71    7.0086350701388e-06
  72    2.6028328724985e-07
  73    6.9984983171643e-07
  74    -2.4790606948054e-05
 Sym= A
 Ene=   -0.8869643953
 Spin= Alpha
 Occup=    2.00000
   1    -0.094946336834029
   2      0.30375269772047
   3     0.061282555005158
   4     0.067207742656285
   5     0.012291241953127
   6    -0.082836137446484
   7      0.20238120409842
   8    0.0092207197474165
   9    -0.027724109082889
  10    -0.0024992507761726
  11     -0.05379425204904
  12      0.13109941584002
  13    0.0059374627946527
  14    -0.031842440676792
  15    -0.0029390207453454
  16     -0.07451797415075
  17      0.18210582372359
  18    0.0091443156592911
  19     0.011193648576222
  20    0.0029629866240535
  21    -0.045758448809314
  22      0.11179194130252
  23    -0.026689883954946
  24     0.017123039726712
  25    0.0011364574165386
  26    -0.061003211213254
  27      0.14561558268859
  28    -0.035370509004008
  29     0.033035755381324
  30    0.0023025141058505
  31    -0.085848571302534
  32      0.28271088755429
  33    -0.028415752453188
  34    -0.028203676669034
  35     0.043866706386692
  36    -0.083575897420522
  37      0.20407230225741
  38    -0.0071127679560332
  39     0.036691013397033
  40    0.0049010711973126
  41     -0.10378619457898
  42      0.33367943417961
  43     -0.06540130508217
  44    -0.071563957120179
  45    -0.014098228873149
  46    -0.062179289150623
  47      0.14829773278073
  48     0.044070847286777
  49    -0.031100092955206
  50    -0.0016208478780771
  51    -0.031290625804562
  52     0.076453223132937
  53     0.027069967321213
  54    0.0013342461666381
  55    0.0018868955931155
  56    -0.026632776248816
  57     0.064560027889546
  58     0.017194807782609
  59     0.012998910960396
  60    0.0029135557466354
  61    -0.038906118504998
  62     0.094943588178061
  63     0.012161437716553
  64     0.030074048152091
  65     0.005038814072615
  66     0.023726920396524
  67     0.017819418972058
  68     0.021105548181934
  69     0.051321359803995
  70     0.051580953737096
  71      0.02188862049549
  72     0.010684352959898
  73    0.0090298474006995
  74     0.016551279104197
 Sym= A
 Ene=    -0.875405845
 Spin= Alpha
 Occup=    2.00000
   1     -0.02892013175233
   2     0.092933415410472
   3     0.028624734225774
   4     0.014694193619605
   5    0.0036179339667185
   6    -0.0062742434627318
   7     0.012999768783241
   8     0.036945904432726
   9    -0.018313886226719
  10    -0.00014859925130944
  11    -0.030215391944032
  12     0.074479717785168
  13     0.036859165735993
  14    -0.012097173460703
  15    0.0012059033526578
  16    -0.087663408008805
  17      0.21411202642326
  18     0.037626435200564
  19     0.030483490096536
  20    0.0073356234204107
  21    -0.039874636977437
  22     0.098283143631226
  23    -0.012565776343322
  24     0.028137202990572
  25    0.0034102184805613
  26     -0.02873086452064
  27     0.069976321665122
  28    -0.0055940337953108
  29     0.018016971483674
  30    0.0020721913203015
  31      -0.1313575548321
  32      0.43420473203877
  33    -0.037169428267725
  34    -0.038239830803275
  35     0.069472449182507
  36     0.074171971012935
  37     -0.17914592381307
  38     0.036642578524637
  39    -0.056888054416795
  40    -0.0058956411066896
  41      0.12059772214279
  42     -0.38951570029099
  43      0.08525491972685
  44     0.075874243779001
  45     0.015926277069492
  46     0.078042123584587
  47     -0.18780645334811
  48    -0.052621574066411
  49     0.038342205072717
  50    0.0021026170175682
  51     0.040498979664876
  52    -0.099502338739936
  53    -0.034090101481155
  54    -0.0022675804871908
  55    -0.0024602724426165
  56     0.032538712842054
  57    -0.078973316828364
  58    -0.018533949359584
  59    -0.017703190537534
  60    -0.0036641713058275
  61     0.038373807550233
  62    -0.094085643868171
  63    -0.0032678226746826
  64    -0.033085858227034
  65    -0.0048930474656446
  66    0.0084149958282863
  67     0.017736481936182
  68     0.010217778431975
  69     0.081214697771191
  70     0.082008950689074
  71    -0.028487521014516
  72    -0.014392214413395
  73     -0.01142873840138
  74      -0.0118854573667
 Sym= A
 Ene=   -0.8563498999
 Spin= Alpha
 Occup=    2.00000
   1     -0.13993500474987
   2      0.45301576874336
   3     0.097384762292233
   4     0.086103085446064
   5     0.016876487776085
   6    -0.079094874854731
   7      0.19194640446846
   8     0.034893129333295
   9    -0.076344205383058
  10    -0.0072289858542152
  11    -0.015557439990785
  12     0.037841900664381
  13     -0.03269939202035
  14    -0.032984396123266
  15    -0.0061992640029663
  16     0.041891542470291
  17     -0.10199548157423
  18    -0.062010523200269
  19    -0.057754862894618
  20    -0.011719147327948
  21    -0.019107434264583
  22     0.046463569027324
  23    -0.037468911594145
  24    -0.032827401752215
  25    -0.0064397493042357
  26    -0.085749743855482
  27      0.20745993343096
  28    -0.069591180080591
  29     0.036556579201403
  30    0.00077474523419721
  31      0.12340038778711
  32     -0.41056910216113
  33     0.025256792982361
  34     0.026717097115842
  35    -0.069315071750541
  36     0.014546089942411
  37    -0.032321364789008
  38     0.039579409133755
  39    -0.042181628739946
  40    -0.0034956494070143
  41     0.058461156044375
  42     -0.19015624711421
  43     0.048679213800164
  44     0.029707349222837
  45    0.0071789801956558
  46     0.042951511631259
  47     -0.10492862236248
  48    -0.026575568748072
  49     0.020204401104646
  50     0.001177909189012
  51      0.02316867833426
  52     -0.05748591106197
  53    -0.018648580724206
  54    -0.0021775479945964
  55    -0.0014789245891485
  56      0.01627813444628
  57    -0.039545318543224
  58    -0.0065967246771029
  59    -0.011086837314718
  60    -0.0019826899739485
  61     0.010082456756937
  62    -0.024981841258636
  63    0.0093173948284232
  64    -0.013738076178937
  65    -0.0013432672803985
  66    0.00014528751082831
  67    0.0035735738788233
  68     0.032990694909767
  69    -0.081175751304041
  70    -0.081757354860341
  71    -0.016703865247761
  72    -0.0088206308966692
  73    -0.0060527622478571
  74    0.0026501434221346
 Sym= A
 Ene=   -0.7525483426
 Spin= Alpha
 Occup=    2.00000
   1    -0.013843845985758
   2     0.046605262149147
   3    0.0088081270385158
   4    -0.00057064718962002
   5    0.00043481643028435
   6     0.016575344469119
   7     -0.04426296754467
   8    -0.0029016542080714
   9    -0.033105346101981
  10    -0.0045940208081539
  11     0.025958610514442
  12    -0.066915075950271
  13    0.0085065370296779
  14    0.0059029511461262
  15    0.00092522813978708
  16    0.0097511723735357
  17    -0.026975295213522
  18     0.018019205759882
  19    0.0024861922024403
  20    0.0014020915275297
  21    0.0023795233849257
  22    -0.0059000476921044
  23    0.00023426427137934
  24    -0.0073044364980864
  25    -0.00090323873850717
  26    -0.0086973480664095
  27     0.022942569048635
  28    -0.010518604125402
  29    -0.00085699233172817
  30    -0.00071079892805194
  31    -0.0096653966271341
  32     0.033721405753918
  33    0.0048478622261102
  34    0.0015430092915795
  35    0.0077462338215898
  36     0.015297710035853
  37    -0.039304177772432
  38    -0.049411285748959
  39     -0.10645899528017
  40    -0.018128641743514
  41     0.095064415489612
  42      -0.3243297037844
  43     0.034073640292938
  44     0.047258245677681
  45    0.0087302330309856
  46    -0.0041189255773492
  47     0.013564436261934
  48     -0.11551011844065
  49     -0.03580014511677
  50     -0.01222107904385
  51     -0.12472375618897
  52      0.32579094952929
  53     0.025372998736515
  54    -0.078370574851901
  55    -0.0094312027722214
  56      -0.1637755273746
  57      0.43091890643803
  58     0.042486220858874
  59      0.04783587978121
  60    0.0094628309687703
  61     -0.10969951362207
  62      0.28498764393569
  63    -0.083788993432617
  64      0.02956786229314
  65    -0.00092850470406096
  66    -0.020876625687001
  67    -0.00068636797191691
  68    0.0053313843102444
  69     0.008441365232179
  70     0.010131699937385
  71    0.00015782962652522
  72     0.072597864653598
  73     0.095222275765237
  74     0.059112787851874
 Sym= A
 Ene=   -0.7295416364
 Spin= Alpha
 Occup=    2.00000
   1     0.025641251635311
   2    -0.088195820992789
   3     0.062996082314233
   4    -0.069647276067192
   5    -0.0049467031113401
   6     0.085767682017821
   7     -0.23500259385033
   8     0.062114526092268
   9    0.0088202508024621
  10     0.004412316956165
  11    0.0054136208576542
  12    -0.016931287836759
  13     0.068552571699175
  14    -0.001758894412873
  15    0.0036934075622506
  16    -0.061669281427086
  17      0.16959594538192
  18    -0.014239684829549
  19    -0.099168854572836
  20    -0.013399837929427
  21     -0.12468589744738
  22       0.3291868157879
  23    -0.044478195320526
  24    0.0036725132888149
  25    -0.00090398462852561
  26    -0.085305376094516
  27      0.23107692584159
  28     0.067280475503004
  29     0.040949720625292
  30    0.0097266630943147
  31     0.045987344369174
  32     -0.16224268635668
  33    -0.017839821710117
  34    -0.031108487038286
  35     -0.04185301661204
  36     0.095846293521761
  37     -0.26323662763393
  38    -0.025596281595481
  39     0.058892425077701
  40    0.0065908039265681
  41    -0.021611761618331
  42     0.074069009531841
  43     -0.08362218748346
  44     0.057322632795668
  45    0.0029673092752604
  46    -0.086684176087466
  47      0.23505620375186
  48    -0.006512289860356
  49    -0.021023144400076
  50    -0.0033012914631752
  51    -0.067493024552281
  52      0.18024790887693
  53     0.029559399420637
  54     0.031497506266259
  55    0.0063350044256354
  56    3.1660654626725e-06
  57    -0.00074108110103567
  58    -0.043087914796031
  59     0.047819762132314
  60    0.0040968569399646
  61      0.07445786488183
  62     -0.19884866395507
  63    -0.047273792698734
  64    -0.021501666528072
  65    -0.0060127144537773
  66    -0.011232783413757
  67     0.078462800093011
  68     0.052533973574039
  69    -0.054360206310744
  70    -0.043652924587118
  71     0.055877532894673
  72     0.044495630047715
  73    -0.00029756291197428
  74     -0.05250263816878
 Sym= A
 Ene=   -0.7236063824
 Spin= Alpha
 Occup=    2.00000
   1     0.095356754705229
   2     -0.32782315950091
   3    -0.081818041157586
   4    -0.0040456473080078
   5    -0.0055184402357003
   6     -0.05067659676183
   7      0.14043162009275
   8     0.026866721574512
   9      0.13122081163869
  10     0.018404074394984
  11      -0.1370554295656
  12      0.36189819640731
  13     0.029951880328787
  14    -0.043471434821829
  15    -0.0023197911070076
  16     -0.10278204574815
  17      0.28489779531666
  18     -0.11472842803609
  19    -0.056885708911261
  20    -0.014418215879064
  21    -0.066673516955915
  22      0.17493110288277
  23    -0.010307554337153
  24      0.06848712230198
  25    0.0084881060765506
  26     0.043750556616324
  27      -0.1172415489228
  28      0.10603568882995
  29     0.022411347987457
  30    0.0090602758830083
  31     0.074252691699928
  32     -0.26297083607397
  33    -0.050683915189388
  34    -0.033782382972238
  35    -0.068045673292357
  36    -0.046231489022745
  37      0.12883719330298
  38     0.015752165436128
  39    -0.028821835637295
  40    -0.0032361883866842
  41     0.025374774626747
  42    -0.087888140963912
  43     0.063271261661989
  44    -0.028839541072285
  45    -0.00025408374906901
  46     0.051783101539183
  47     -0.14056716328893
  48    -0.017099935373799
  49     0.006137388687258
  50    -0.00024828252222717
  51     0.017178368132903
  52    -0.046438011584484
  53    -0.015058105809681
  54    -0.033437440845657
  55    -0.0056782624881504
  56    -0.027201042297865
  57     0.072929285327811
  58     0.026136709590904
  59    -0.017824382763349
  60    -0.00089738279495866
  61     -0.04884712695302
  62      0.13130966802734
  63    0.00090391161050871
  64     0.016634007669698
  65    0.0023783142099208
  66      0.08189045264067
  67     0.038236269562013
  68     -0.03069561019776
  69    -0.077458467546044
  70    -0.084565871431955
  71    -0.034403347179167
  72    -0.011895125336262
  73      0.01805511229616
  74     0.025847489323259
 Sym= A
 Ene=   -0.6870930516
 Spin= Alpha
 Occup=    2.00000
   1     0.018589588382858
   2    -0.065406441674464
   3     0.032649510095144
   4    -0.070548197775411
   5    -0.0069167029235811
   6     0.073649739730893
   7     -0.20426509688513
   8    -0.084888926377125
   9    -0.018324790474479
  10    -0.0077097993393206
  11      0.10124452886497
  12     -0.27414883234697
  13     0.019793021888715
  14     0.027254456885158
  15     0.003369242409153
  16    0.0050119909213255
  17    -0.013470406592378
  18     0.088382947166363
  19    -0.087309215756201
  20    -0.005483655455083
  21     -0.10379677283909
  22      0.28242325984904
  23    -0.016380321257453
  24    -0.039020867790137
  25    -0.0044985248536401
  26    -0.082703416041721
  27       0.2315967112735
  28     0.072875280385275
  29      0.01524479767824
  30    0.0068550049915864
  31    -0.0017942396212602
  32     0.006352988465183
  33     0.022756224656991
  34       -0.020562279757
  35    0.00069539365908595
  36    -0.069221677114634
  37      0.19231753782757
  38    -0.088083135166221
  39     -0.01193544556244
  40    -0.0069694728277107
  41     -0.02024831243809
  42     0.071621390623776
  43      0.03166922864696
  44    -0.071963190291832
  45    -0.0081776175941187
  46     0.081563634994646
  47     -0.22931747790732
  48     0.072500207654151
  49     0.014023449617298
  50    0.0064109811713463
  51     0.099057295647865
  52     -0.27145031425135
  53      -0.0184176964705
  54    -0.044917664731699
  55    -0.0075637330690813
  56    -0.0066036966021103
  57     0.017280863661984
  58     0.075195201975078
  59    -0.075491747812081
  60    -0.0060215870670155
  61    -0.094920669566124
  62      0.25852355511042
  63     0.020974264161451
  64     0.028590865462268
  65    0.0053885195896293
  66    -0.070581057890592
  67     0.085784062218239
  68      0.06522822733241
  69      -0.0120333167621
  70     0.016954112798829
  71     -0.06539682708339
  72    -0.080830936059943
  73    0.0039765187766172
  74     0.064022273309216
 Sym= A
 Ene=   -0.5984235861
 Spin= Alpha
 Occup=    2.00000
   1     0.031189538256958
   2     -0.11375790884521
   3     -0.11048448907144
   4     0.071382057299096
   5    0.0023664157016025
   6    -0.076289285091225
   7      0.22882544233108
   8     -0.13404500406187
   9     0.003275571317519
  10    -0.0071749473157839
  11     0.063676019206444
  12      -0.1802711700557
  13     -0.10257018606203
  14    -0.034600930736792
  15    -0.011288346988787
  16     0.030545957338857
  17    -0.090296591236096
  18      0.11544502486694
  19     -0.11112856340286
  20    -0.0053329688839601
  21    -0.081054957783587
  22      0.23265639239086
  23     0.052741971116704
  24    -0.014326584650745
  25    0.0032065764789179
  26     0.021594494568507
  27    -0.064094023231211
  28      0.12650743205001
  29     0.025087359444779
  30     0.010936602163509
  31    -0.009173080551503
  32     0.034654181747862
  33     0.076375343054731
  34    -0.028539351687698
  35     0.015625415296407
  36    -0.079748999698744
  37      0.23862223458449
  38       0.1024319577178
  39     -0.09338168184046
  40    -0.0067384852070321
  41     0.056030896299287
  42     -0.20625599629067
  43     0.068421667568282
  44    -0.026316367614122
  45    0.00049445969721272
  46    -0.032568078780368
  47     0.096067023021118
  48       -0.166799560899
  49    -0.0084088869549577
  50    -0.011492779527762
  51    -0.081007471389213
  52      0.23452332946464
  53     -0.01066982958169
  54      0.11048411175599
  55     0.015019447051623
  56      0.07844544547841
  57     -0.22639297917004
  58     -0.04127599258973
  59     0.092546127502958
  60     0.010498848942246
  61     0.026310593725338
  62    -0.074467918057275
  63      0.15413291997715
  64     0.022930410983632
  65     0.012743238894915
  66    -0.068004244401469
  67      0.11110712596588
  68     -0.02042800997216
  69    -0.016370636457012
  70     0.060894165808923
  71     0.044639927050972
  72      0.10496700581594
  73    -0.095363175657645
  74    -0.016351737694587
 Sym= A
 Ene=   -0.5852038314
 Spin= Alpha
 Occup=    2.00000
   1     -0.03850539950961
   2      0.14200186003168
   3    -0.050913896580195
   4      0.06432176765385
   5    0.0047055758740089
   6     0.025005744731434
   7     -0.07289683163034
   8    -2.6821356187081e-05
   9     -0.15122082532764
  10    -0.020018910241615
  11     0.031353113815965
  12    -0.089401022946796
  13      0.12624196141443
  14    -0.021495278919798
  15     0.003126108395666
  16    -0.079603353128281
  17      0.23920596640772
  18     0.017129251660833
  19    -0.024557304758286
  20    -0.006870185560289
  21    0.0067982092275199
  22    -0.019634629186709
  23     0.031305952822263
  24      0.14240267963617
  25     0.018578271760017
  26     0.076782113022525
  27     -0.22945491585874
  28     -0.06813901143709
  29     0.039291089926264
  30    -3.5545495004498e-06
  31     0.024306266260877
  32    -0.093112160331428
  33    -0.073075036115341
  34    -0.086316123913481
  35    -0.055838420952702
  36      0.02236788838667
  37    -0.071085684982922
  38    -0.098721265763991
  39     -0.16382320793674
  40    -0.029036547449205
  41     0.028214204706023
  42     -0.10545083854014
  43     -0.12235763212858
  44      0.11957815566232
  45    0.0094785438610134
  46    -0.091149264635888
  47      0.27399559504059
  48    0.0076824309251783
  49     0.055585263732752
  50    0.0084715476448254
  51     0.045044557160321
  52     -0.13161181115754
  53     0.075115186213094
  54      0.12876265143011
  55     0.022855921204587
  56      0.06092436751789
  57      -0.1784421920026
  58      0.11974360547337
  59     -0.06721451568574
  60    -0.0021025716678757
  61     -0.08866274099953
  62      0.25620022068919
  63     0.061921573910508
  64    -0.031809054384765
  65    -0.0005335115899665
  66    -0.063958778683326
  67    -0.017299692952919
  68     -0.10324694605458
  69    -0.073629569150673
  70    -0.056739343388724
  71      0.11958244169144
  72    -0.061577734642156
  73    -0.084845021768544
  74       0.1141970234021
 Sym= A
 Ene=   -0.5627544769
 Spin= Alpha
 Occup=    2.00000
   1     0.044353277389814
   2     -0.16654729169257
   3      0.06098915479324
   4     -0.11924586512828
   5    -0.011313821607603
   6     0.019261588425084
   7    -0.059937347393244
   8     0.014686271627333
   9      0.13558031528118
  10     0.017836021007987
  11    -0.076399352013446
  12      0.22424456869474
  13    -0.024683956836265
  14     0.059816821291163
  15    0.0084168971874186
  16     0.056066428972081
  17     -0.17149216591635
  18      -0.1233298104554
  19      0.11508769475481
  20     0.011519183829943
  21     0.028916320943796
  22    -0.084756043732687
  23    -0.079093709806807
  24      -0.1746680072173
  25    -0.026395141500761
  26     -0.10183408654243
  27       0.3095457625285
  28     0.060544121378595
  29    -0.081762998062703
  30    -0.0057599357855269
  31    -0.015021952739824
  32      0.05829462462606
  33    0.0018353637404238
  34      0.13680644351969
  35      0.04750144495425
  36    -0.015002358239169
  37     0.043242100597873
  38    -0.049780001210243
  39     -0.11680049493564
  40    -0.020050730392648
  41     0.046513752464133
  42     -0.17538570154173
  43    -0.019249118970911
  44     0.055728780095401
  45    0.0064702844998898
  46     -0.06624987469332
  47      0.20144139090547
  48    -0.086163488101989
  49     0.041592604810508
  50    0.00056874303758381
  51    0.0061840126276816
  52    -0.018713599147459
  53     0.056891483219178
  54      0.14378532550989
  55     0.023851411037969
  56     0.066155711021193
  57     -0.19748086933633
  58      0.10847309776661
  59    -0.025341742382343
  60    0.0030726886295341
  61    -0.072357928704414
  62      0.21443446003656
  63     0.074065304953528
  64    -0.0072166709091715
  65    0.0034583116520339
  66      0.11118942167248
  67    -0.041636344762977
  68      0.15646169741429
  69      0.10741413651529
  70    -0.0054830509380126
  71      0.10253706234449
  72    -0.010187100366326
  73     -0.10645313994255
  74     0.083217671646227
 Sym= A
 Ene=   -0.5387179819
 Spin= Alpha
 Occup=    2.00000
   1     0.027449445422992
   2     -0.10241222497579
   3    -0.075880683055115
   4      0.10833048727396
   5    0.0093254077467729
   6    -0.081444260121043
   7       0.2485193193781
   8     0.086766168573007
   9     0.030858602273093
  10    0.0099805593796515
  11    -0.012996044087425
  12     0.038373779712858
  13     -0.17382347461336
  14    -0.076415051896946
  15    -0.017451002120174
  16     0.078205464762035
  17     -0.24704785802773
  18     0.019196885778998
  19     -0.10878087528877
  20    -0.0015150560259669
  21    -0.052614544530026
  22      0.15537945381755
  23     0.034619619689781
  24    -0.070303750023089
  25    -0.0028189740171802
  26     0.023065479793002
  27    -0.074688369803681
  28      0.12547136034266
  29     0.056354960379436
  30     0.015450256146413
  31    -0.019228434598435
  32     0.076236034936526
  33       0.1785415707254
  34     0.057142129006671
  35     0.071704034296773
  36      0.07850682704387
  37     -0.24154968364305
  38     0.097388593062036
  39    -0.036338129903987
  40    0.00068597802515905
  41    -0.012250596921368
  42     0.045131844506461
  43    -0.096272144966329
  44      0.16603410462851
  45     0.017565205950474
  46    -0.057830790513894
  47      0.18456116493742
  48      0.11643540133022
  49       0.1139665767332
  50     0.023424970398469
  51     0.070308979995668
  52     -0.21035548732688
  53     0.037718249761665
  54    -0.016855381179036
  55    -7.0995161086988e-05
  56    -0.057702154691299
  57       0.1781833495547
  58     0.016293811224078
  59     -0.15013851611077
  60    -0.020184653365834
  61    -0.017022839720025
  62     0.052371424625212
  63     -0.13709092479035
  64     -0.10636723670069
  65    -0.023504334943157
  66    -0.0012727548516665
  67     0.097658303547456
  68    -0.041119022943435
  69       0.0411616329476
  70      0.13132097787967
  71      0.11397521358936
  72     -0.10623113468135
  73      0.11858592615125
  74     0.053735254538799
 Sym= A
 Ene=   -0.4811534662
 Spin= Alpha
 Occup=    2.00000
   1     0.010637370091599
   2      -0.0436625234052
   3     0.049243726777872
   4     0.065702655525888
   5     0.012564471517086
   6    0.0064525113061741
   7    -0.023495483830592
   8      0.19065951958071
   9     -0.01601877918132
  10     0.011713421738088
  11    -0.016609786640662
  12     0.045110032838601
  13    -0.0077670106634626
  14     -0.14013517118186
  15    -0.010762887635071
  16     0.034524604999541
  17     -0.12372282986478
  18     -0.14123544951598
  19      -0.1546816011171
  20    -0.0029424973052057
  21    -0.012642366789059
  22     0.032777386020703
  23     -0.10749317961538
  24     0.029836977475487
  25    0.0047977691616032
  26     0.022975097909612
  27    -0.078959153218595
  28    0.00080416956327143
  29      0.16091597309656
  30      0.02259298790305
  31    -0.0080525682224069
  32     0.035288012467191
  33      0.21241286243761
  34      0.13215429862017
  35      0.10228303481264
  36     0.013767225493409
  37    -0.047392810629674
  38     -0.18661305123024
  39     0.027823572397638
  40    -0.0070227352521219
  41     0.016117592934941
  42    -0.066190801663348
  43    -0.051981703208674
  44    -0.073202439408717
  45     -0.01334098137979
  46     0.019205031785197
  47    -0.068362836254951
  48    -0.014307294371617
  49     -0.19177422083527
  50    -0.027990348544608
  51    -0.011820977317428
  52     0.030205922334218
  53      0.16417468074387
  54     -0.03270503387566
  55    0.0055919969419614
  56     0.026463758200208
  57    -0.093626736110915
  58      0.17753984160763
  59      0.15643755675323
  60     0.033130065499327
  61    -0.011182635809248
  62     0.027714226339397
  63    -0.029287969267711
  64      0.16296706201044
  65      0.02135317437474
  66    -0.066054819990357
  67    -0.053244567232511
  68     -0.12842975953248
  69     0.081932325251177
  70       0.1384682656707
  71     -0.14229086366932
  72    -0.093399971656502
  73     -0.19294303878473
  74    -0.092329844496376
 Sym= A
 Ene=   -0.4668347921
 Spin= Alpha
 Occup=    2.00000
   1    0.0049999628312291
   2    -0.019435310551853
   3     -0.12206851729872
   4      0.15158003343245
   5     0.012102312010584
   6    -0.0072108139422504
   7     0.030189791907194
   8    -0.056752161228488
   9     -0.17103272138471
  10    -0.024024286339326
  11     0.031764189299895
  12     -0.10534022790522
  13      0.14857989822494
  14     -0.01221746727797
  15    0.0095051932040644
  16    0.0058771744882101
  17    -0.023038371223127
  18     -0.15671316395111
  19     0.071437702643699
  20    0.0051501769958366
  21    -0.036928189680915
  22      0.11810211065092
  23    -0.080292766183698
  24     -0.12035114089414
  25    -0.018487177883511
  26     0.015589815512718
  27    -0.059222870059553
  28      0.17100572962128
  29       0.1182095174307
  30     0.025718848160825
  31    -0.001553997280715
  32    0.0071718649811442
  33     -0.25655281303709
  34      0.38430154696261
  35     0.046293043570226
  36    -0.0040615061766856
  37     0.012696644678829
  38    0.0040084592626501
  39    -0.052589351136974
  40    -0.0060732710146389
  41    -0.012295902385819
  42     0.049397183460761
  43    -0.048320730540999
  44     0.031782141299119
  45    0.0020772260334631
  46    0.0093140386903374
  47     -0.02831689846019
  48     0.072226128370478
  49    0.0073114683147255
  50    0.0056999463435916
  51    -0.0032178749534934
  52     0.011785050185759
  53    -0.058971064191593
  54    -0.053465243402641
  55    -0.011127573825319
  56    -0.0061932915789437
  57     0.021737904780004
  58    -0.090455940353946
  59     0.016055688337814
  60    -0.0032013939369474
  61     0.016027332579325
  62    -0.050826137864365
  63     0.060811955590967
  64    -0.0088165649630761
  65    0.0028473002520618
  66    -0.066737217691115
  67     0.018985770249564
  68    -0.075931424912581
  69       0.3283436226216
  70     -0.26588548437135
  71    -0.018049885766404
  72     0.030792255287092
  73     0.047283927998447
  74    -0.0022976094968283
 Sym= A
 Ene=   -0.4516819687
 Spin= Alpha
 Occup=    2.00000
   1    -0.021514585015226
   2     0.089168073906896
   3    -0.084881706073527
   4     0.052714673823438
   5    -0.00021785471087555
   6    -0.029111621577967
   7      0.10151414963064
   8    -0.042058070294408
   9    -0.049625108563576
  10    -0.011972769945784
  11    -0.012494036949521
  12     0.048431485049745
  13    -0.062170858808412
  14      0.14294160051248
  15    0.0066341672254595
  16     0.013084788503673
  17    -0.033839203127068
  18      0.14067378601348
  19      0.16955999399186
  20    0.0054429093752845
  21    -0.018366041623663
  22     0.068777255396964
  23      0.23672049412633
  24     -0.11953774933501
  25    -0.0078948076019085
  26     0.014643622939206
  27    -0.046859284514648
  28     0.053779713746307
  29     -0.11863967210512
  30    -0.014632979758994
  31    0.0018381140569183
  32    -0.010874905450871
  33     -0.18862369721981
  34     -0.06082521860753
  35    -0.076391875384359
  36     0.018990915441123
  37    -0.066440098192659
  38    0.0025951489772786
  39    -0.042639647835743
  40    -0.006796283213485
  41     0.026492242457549
  42     -0.11035647448157
  43    -0.073042933306294
  44     0.038229459422219
  45    0.0003233873142467
  46    -0.019611878874642
  47     0.062970282306336
  48     0.028165645112644
  49     -0.12346061402857
  50    -0.015911063991702
  51     0.018108872964309
  52    -0.067752562450744
  53      0.26720609908118
  54     -0.11120422944921
  55    0.00074865915777848
  56    -0.023345539529498
  57     0.069091926563993
  58      0.13010853961929
  59      0.13540206535461
  60     0.027105059326373
  61     0.027896783901742
  62    -0.098659814614707
  63    -0.084068283320916
  64      0.15449125176615
  65     0.016392478306104
  66      0.11351489303629
  67      0.21480098377638
  68     0.065432360606535
  69    -0.023165033604356
  70     -0.12923617704763
  71    -0.058359976754068
  72     -0.23459632656188
  73     -0.10092302949221
  74     -0.14461957121875
 Sym= A
 Ene=    -0.432752529
 Spin= Alpha
 Occup=    2.00000
   1    -0.051550800886739
   2      0.21616563229495
   3    -0.012240788312149
   4    -0.0006395122937685
   5    0.00081265283624221
   6     0.053016763780988
   7     -0.17944725215098
   8     0.080378398420838
   9    -0.073136416387733
  10    -0.0018314007965232
  11    -0.053656989112506
  12       0.1831832118883
  13    -0.028418535022622
  14      0.21584520202043
  15     0.033385641626441
  16      0.04443303282142
  17     -0.15400470801625
  18    -0.018330431326978
  19    -0.0059643138978765
  20     0.016604877609153
  21    -0.045889433021193
  22       0.1591769175915
  23      0.23975441032052
  24    -0.052046917605971
  25     0.016290731912971
  26     0.051390784293009
  27     -0.17163867559695
  28    -0.066608556664042
  29      0.04929605450564
  30    0.0048090711390068
  31    0.0095990508910753
  32    -0.043099005142303
  33      0.09055440869084
  34     0.068368500729989
  35     0.043790931048377
  36     0.043355931418798
  37     -0.14954062891758
  38     -0.10774674856221
  39     0.051333939552682
  40    0.0015228836667348
  41    -0.037946765783813
  42      0.16157326292211
  43    0.0048242857799009
  44    -0.011489920792523
  45    -0.0011702326890478
  46     0.041026364411575
  47     -0.13933097838612
  48     0.037429426477209
  49    -0.080919784783761
  50    -0.0091260849575234
  51    -0.039433359013724
  52      0.13625394841937
  53     -0.16585279986923
  54     0.061943160237815
  55    -0.0014485697518222
  56     0.044143857689165
  57      -0.1466935933351
  58     0.012877009637386
  59    0.0042378060443011
  60    0.0015193475601338
  61    -0.043321837549474
  62      0.14752648331505
  63     0.047875719673882
  64     -0.15273014923341
  65    -0.018162057179904
  66      0.24239867230448
  67      0.26070202212137
  68     -0.12360269572121
  69     0.042698487500405
  70     0.056988506213212
  71     -0.12747429578957
  72      0.19568839430215
  73     -0.07769886310178
  74      0.18474092247237
 Sym= A
 Ene=   -0.4203168009
 Spin= Alpha
 Occup=    2.00000
   1      0.01709352396262
   2    -0.070991424056089
   3     -0.10723241514096
   4     0.050989951736479
   5    -4.699083859151e-05
   6    -0.0088294321750591
   7     0.032711809638912
   8    -0.012641893106144
   9    -0.086713356966808
  10    -0.012232013539386
  11    -0.025711595546152
  12     0.087704300064042
  13     0.086379427880347
  14    -0.013490176473753
  15    0.0050344039570901
  16    -0.0042709250504863
  17     0.014091918652476
  18    -0.079478429448144
  19     0.049469984345162
  20    0.0064378665147746
  21     0.024975237437878
  22    -0.086392844493474
  23    -0.045501743123604
  24     -0.07158039753837
  25    -0.010272381041176
  26    -0.019439802751595
  27     0.064456182844758
  28      0.12067466628354
  29     -0.10463622960868
  30    -0.0049968572025491
  31    0.00069975819959932
  32    -0.0026836681336681
  33      0.16786512971971
  34     -0.15739796013667
  35      0.00150801125436
  36    0.0093484496270652
  37    -0.041879626332284
  38    -0.075326020218217
  39     -0.25468381354681
  40    -0.040416156358543
  41    -0.010650564694755
  42     0.043795546529575
  43      -0.2227665390817
  44        0.208416147057
  45     0.015969377126314
  46     0.016834281040196
  47     -0.04917709978509
  48      0.29194239657082
  49    -0.021619608659105
  50     0.015114882009322
  51    -0.015210287521736
  52     0.053030574189423
  53     -0.11277169331431
  54     -0.23122170151347
  55    -0.039652165194753
  56    0.0085975441824131
  57    -0.029330819160585
  58     -0.16642324861347
  59      0.20031993302055
  60     0.018049794598662
  61    0.0019998994282461
  62    -0.006873017492204
  63      0.24138569590443
  64     0.034059128337857
  65     0.019807238113195
  66    -0.00060940427588763
  67    -0.049768124787097
  68      0.12625771475869
  69     -0.15697072626657
  70      0.17104411059344
  71    -0.085672616505779
  72     0.048629897116578
  73     -0.02474126572556
  74     0.022809873779713
 Sym= A
 Ene=   -0.4032180949
 Spin= Alpha
 Occup=    2.00000
   1    -0.029550319219312
   2      0.12161586302593
   3       0.0765417327525
   4    -0.098883026034496
   5    0.00023673504861878
   6     0.057476437406769
   7     -0.19584131013287
   8     -0.12383910827097
   9    -0.0063581426260072
  10    0.0028172925624978
  11     -0.02448762627552
  12     0.087340562122602
  13     0.059302535819337
  14      0.20258118087635
  15     0.049061912015911
  16     0.010040029949672
  17    -0.043876863665952
  18    -0.095499987269728
  19     -0.11745646951024
  20     0.025169054793775
  21    -0.026574559103534
  22     0.092830937548188
  23     0.046982746380231
  24      0.07911341512417
  25     0.032687367441265
  26      0.01976599493059
  27    -0.065956267131624
  28     -0.14389247398794
  29     0.088057960522885
  30     0.012394186277811
  31     0.015896662620978
  32    -0.069121478727202
  33      0.15473299935935
  34      0.11147600061577
  35     0.087622012395472
  36     -0.06844943223712
  37      0.23247091897293
  38    -0.076370024714083
  39     -0.10549878375312
  40    -0.015253343964843
  41     0.033203495085016
  42     -0.14066901279795
  43     0.039977711231847
  44      0.02167997771703
  45     0.007565138661614
  46     -0.02239699112193
  47     0.082667586944653
  48     -0.01901677265428
  49       0.2518235067902
  50     0.035622626566951
  51     0.037877877613611
  52     -0.13142247127874
  53    -0.013569328905274
  54    -0.097866665657685
  55    -0.013966304759627
  56    -0.033806928264681
  57       0.1180777057879
  58     -0.11948555804962
  59     0.022765578255684
  60    -0.0032744277244556
  61      0.03151520163696
  62     -0.11199180158133
  63     0.098279495788229
  64      0.27014048675975
  65     0.045991754772161
  66      0.18325932866615
  67     0.063256729207641
  68     -0.12689248187259
  69     0.067762816303161
  70     0.092670056965501
  71       0.2421096672773
  72    -0.079447457001912
  73      0.11738053535743
  74     -0.23091789762786
 Sym= A
 Ene=   -0.3837509979
 Spin= Alpha
 Occup=    2.00000
   1    -0.0069225940461481
   2     0.031086500782736
   3     -0.13869392665822
   4      0.19909128421287
   5     0.016243726157228
   6     0.024354483882384
   7    -0.074822078866414
   8     -0.09694584463394
   9     -0.23835738975681
  10     -0.03578457018794
  11    -0.007768036102402
  12     0.033501006154065
  13      0.18742291272395
  14      0.20305785030099
  15     0.035181425600185
  16     0.006125989237282
  17    -0.019869974721236
  18    -0.099971039553879
  19      0.17257857753952
  20    0.0094279550849262
  21    0.0033008154217203
  22    -0.017530228678706
  23      -0.1896517050879
  24     -0.21881636876197
  25    -0.042221519127272
  26    -0.011431386646748
  27     0.029014416853133
  28      0.24110945756391
  29      0.16841024247023
  30     0.034485425637777
  31    -0.0019185236188624
  32    0.0080451616748279
  33      0.14607290105201
  34     -0.21192653469103
  35    -0.023608201272866
  36    -0.0074035474051035
  37     0.030293078824123
  38    0.0083341749161712
  39      0.10138983303316
  40     0.016711311143159
  41    0.00037213711877567
  42    0.00059664666811332
  43      0.08819020705794
  44     -0.12942698302859
  45    -0.012050334096053
  46    -0.0079941636505588
  47     0.022856522224625
  48     -0.15296647587619
  49    -0.056349345178736
  50    -0.016939237824751
  51    0.0082321966630397
  52    -0.030717709822402
  53     0.089694217233901
  54      0.13081388918916
  55     0.024461157189426
  56    -0.0074322206881776
  57     0.028604874514867
  58    0.0048066641533821
  59     -0.13753464083578
  60    -0.018615807083743
  61     0.018888781734656
  62    -0.065775869547884
  63    -0.077453231621211
  64    -0.015364915484135
  65    -0.0060320180631423
  66      0.13297478095759
  67    -0.094184789443935
  68    -0.081641314626566
  69     -0.20792011808774
  70      0.18008145410378
  71    -0.0082224140213069
  72    -0.051806072750879
  73     0.093504525512402
  74     -0.02940764332185
 Sym= A
 Ene=   -0.3753518099
 Spin= Alpha
 Occup=    2.00000
   1     0.019596638084786
   2    -0.081431106118339
   3      0.11980258987441
   4     0.091752320566928
   5    -0.013570182249571
   6    -0.010592654982866
   7     0.033179889671564
   8      0.15418740078844
   9     0.051741193519899
  10    -0.027629168450271
  11    0.0069583121053618
  12    -0.024496987692253
  13     -0.18801702848111
  14     0.033184917713363
  15    -0.061704409869074
  16     0.030588745365406
  17    -0.096452165420685
  18      0.22182385554849
  19      0.14926696809728
  20    -0.070568111333191
  21    -0.0041355663581522
  22     0.010930934646496
  23     -0.12498545586164
  24     -0.12572272937402
  25    -0.075803683762155
  26    -0.017559987624189
  27     0.055642669429613
  28     0.055321356659577
  29      0.26931983730105
  30    0.0018144077082664
  31    -0.026292315999627
  32      0.11425969979952
  33     -0.18153636609361
  34     -0.15474860180292
  35     -0.14334652998733
  36    0.0066765992494275
  37     -0.02538932582722
  38     -0.12393273945845
  39    -0.013307300831183
  40    -0.034802106457929
  41    -0.0088912554682053
  42     0.036957922347849
  43      0.01142863961585
  44     0.074407542162298
  45    -0.0046757066653005
  46     0.025140978724959
  47    -0.083370573727696
  48     0.093454225264897
  49      0.21384824546878
  50      0.02616795107563
  51    0.0025091927169921
  52    -0.0027536088719414
  53     -0.23732847309152
  54    -0.046418941813743
  55    -0.028363743298809
  56    0.0037038068718987
  57    -0.017897617303348
  58      0.13668823340737
  59     0.073252024908992
  60     0.010779790390894
  61    -0.030566906504812
  62      0.10215116572805
  63    -0.056536203878807
  64      0.17433218773341
  65    0.0083156975051565
  66     0.053602073517344
  67    -0.065960939673805
  68     -0.18259728245735
  69      -0.0941894067474
  70     -0.10856567911804
  71      0.12347378597838
  72      0.18574728508303
  73      -0.1429276333713
  74     -0.11452087966578
 Sym= A
 Ene=   -0.3724769077
 Spin= Alpha
 Occup=    2.00000
   1    -0.0042734488789952
   2     0.015567976907536
   3    -0.070670838987057
   4     0.089353511836892
   5      0.01468262379512
   6    -0.012885343362021
   7     0.048165729266447
   8      0.18007698213379
   9      -0.1045665560575
  10    0.0078399826768985
  11    -0.016793578199916
  12     0.051637176693062
  13      0.15507858776188
  14     -0.23631490853064
  15    -0.0093503100991537
  16    -0.0053612536485209
  17     0.016649147435772
  18     -0.15889873190253
  19      0.11142710165258
  20      0.02366945652024
  21     0.021810706158164
  22    -0.070514354365717
  23      0.24339648892957
  24     -0.11373712379137
  25     0.011160713770341
  26     0.021487198854108
  27    -0.074268036211509
  28     0.047465442023977
  29     -0.22959676988626
  30    -0.018235302084532
  31    0.0044932991760488
  32    -0.019484293826121
  33     0.060918977474628
  34    -0.014104313582681
  35     0.022583954411943
  36    -0.014005901162625
  37     0.051361418421429
  38     -0.19300341422408
  39     0.077657072223319
  40    0.0067448863255465
  41    0.00017354508473077
  42    -0.0029955403289143
  43     0.028977422788184
  44     -0.10640122310157
  45    -0.0080547616603586
  46     0.014922438011029
  47    -0.053084794371066
  48    -0.051496623360598
  49      0.14125471182094
  50     0.020023526959384
  51      0.01819559007908
  52    -0.059266240472301
  53     -0.18725030713158
  54      0.12216410462094
  55    0.0078821455591473
  56    -0.0010056931425458
  57    0.0036991644583293
  58     0.080757501859713
  59     -0.12809492416387
  60    -0.010632170974329
  61    -0.0067179634822027
  62     0.016544833125689
  63    -0.097162412606417
  64       0.2059591325858
  65     0.027016436334309
  66     -0.20444006733068
  67      0.21014662511311
  68      0.16858496513063
  69    -0.036389689002405
  70     0.067130344445261
  71      0.10741599853791
  72      0.16572259080401
  73     0.027776543628328
  74     -0.17616634285192
 Sym= A
 Ene=   -0.3505997594
 Spin= Alpha
 Occup=    2.00000
   1    -0.0038379127990247
   2     0.016165746816864
   3    -0.086130768682998
   4    0.0069256654236675
   5      0.19193052846783
   6    -0.0072242815737635
   7     0.028703947309196
   8     -0.11240560919249
   9    -0.078679486446258
  10      0.24164631888712
  11     0.014609517068773
  12    -0.048340311984015
  13     0.014384319032548
  14     0.042773467030868
  15      0.20450331697885
  16    -0.016862069254501
  17     0.061124586720074
  18    -0.0028162638290521
  19    -0.058888076874777
  20      0.21403742241306
  21    0.0011733298533722
  22    -0.005915820325372
  23    -0.070755113736671
  24     0.026416026318675
  25      0.16033481445383
  26    -0.002986133598928
  27     0.010247410629263
  28     0.041346245926056
  29    -0.065123673595177
  30      0.16080367796931
  31     0.016014638671231
  32     -0.06957303638674
  33    -0.012085819733434
  34    -0.018327393994507
  35      0.12043572649188
  36     0.020178114029873
  37    -0.069761663592441
  38      0.11069175255653
  39      0.01917944208003
  40       0.2525185912767
  41    -0.021973430822344
  42     0.094380110141664
  43     0.078529535924811
  44     0.036906682173064
  45      0.20026539391159
  46     0.019825575369395
  47    -0.068898635870486
  48     0.029908312043848
  49      0.11476787918134
  50      0.16239178240322
  51    -0.0096906659223658
  52     0.037258598221694
  53     -0.08187511992771
  54    -0.099447878132533
  55     0.094801803440662
  56    -0.0090157476995925
  57     0.024696434921964
  58      0.20465871876157
  59      0.10971040292705
  60       0.1475566234176
  61    -0.011116018181078
  62     0.039974657590714
  63     -0.17555848894878
  64    -0.035289268989067
  65      0.13735600710477
  66     0.038579457849401
  67    -0.076069213965756
  68     0.054319919865767
  69     0.013327910888185
  70    0.0088800556638932
  71     0.077218821961111
  72      0.06191401535972
  73     -0.22099288863068
  74    -0.00010223852186397
 Sym= A
 Ene=    -0.345602013
 Spin= Alpha
 Occup=    2.00000
   1     0.014491355639022
   2    -0.061604918962465
   3      0.12554977215909
   4    -0.029671926920678
   5      0.14303585952539
   6    -0.0006637315977576
   7    -0.0022279737557213
   8      0.15009026628638
   9     0.061471077232223
  10      0.20379212688721
  11    -0.010785623021982
  12     0.035300371879025
  13     -0.11748157398432
  14    -0.089926839872062
  15     0.099321658689973
  16     0.020340439793539
  17    -0.067031871934893
  18     0.098813797809927
  19       0.1015053312636
  20      0.10886513957032
  21    0.0017741872586333
  22    -0.0042613824567512
  23     0.027453911946856
  24     -0.10871477533572
  25     0.071912435235547
  26    -0.0064613446057926
  27     0.022442927491793
  28    -0.050717639507442
  29      0.11574695534772
  30      0.11773489163937
  31    -0.0077233873356444
  32       0.0348570121992
  33     -0.11897243101928
  34     -0.09531530836283
  35    -0.0092961519391706
  36    -0.020481544766092
  37     0.069795371980201
  38      -0.1916635042963
  39     -0.11024966950136
  40      0.18274285451198
  41     0.027441257408757
  42     -0.11821471648878
  43      -0.1463640065094
  44    -0.079827665964797
  45       0.1541667746391
  46    -0.021988275440149
  47     0.077081995003769
  48    -0.028348716220801
  49     -0.18525292486127
  50      0.11074980467273
  51      0.01185695171681
  52    -0.044443662493001
  53     0.048186870229123
  54     0.098603836360631
  55      0.12892808959347
  56      0.01442173820375
  57    -0.042908296894954
  58      -0.2494898593772
  59      -0.1784874346702
  60      0.07452099787649
  61    0.0068251259344688
  62    -0.025885061753396
  63      0.19066723155012
  64     0.025606699383373
  65      0.15546285232396
  66    -0.040715805511891
  67     0.058541185995408
  68      -0.1124628046321
  69     -0.04431358041964
  70    -0.057662220109352
  71     -0.10621858407548
  72     -0.03835784619008
  73      0.26130590902849
  74    -0.019315608560632
 Sym= A
 Ene=   -0.3234180748
 Spin= Alpha
 Occup=    2.00000
   1    0.0054946253476132
   2    -0.026070712501271
   3    -0.053498614779809
   4     0.036934673302736
   5      0.11467668627515
   6    -0.016349158422535
   7     0.061445752185379
   8     -0.02800333675124
   9    -0.041178949436152
  10     0.061926572658545
  11    0.0063942948309381
  12    -0.017796539420577
  13     -0.11890769140391
  14     0.088111280475789
  15      0.14324940345631
  16    -0.0072796976649105
  17     0.028934354681076
  18      0.11986890058521
  19     -0.11721664667684
  20      0.23611682596203
  21    -0.0019994213774384
  22    0.0043217512660562
  23    -0.085868632200815
  24     0.086964238281728
  25      0.19082908845172
  26    -0.0060454065416923
  27      0.02253441378681
  28     0.032794483298253
  29     -0.07549778061651
  30      0.14711465146521
  31     0.016113382563399
  32    -0.071249734165426
  33    -0.077651912117628
  34    -0.021656442435098
  35      0.14520422345055
  36    0.0056708253666243
  37    -0.023582993064043
  38    -0.039654240212322
  39    -0.071032356865438
  40     -0.18454707257767
  41    0.0060323297580617
  42    -0.024670673566411
  43     -0.12383631160239
  44     0.093771583186348
  45     -0.20674673718772
  46    -0.0027214839583527
  47    0.0090176095862618
  48      0.08219931631255
  49     -0.10758175275776
  50     -0.22513153030455
  51    0.0073185443583836
  52    -0.021400250665066
  53    -0.076671711701656
  54      0.20691880526449
  55     -0.16811013469243
  56    0.0062201385739957
  57    -0.020745676262369
  58     0.068883269020776
  59       -0.163971414663
  60     -0.20041810471099
  61    -0.0014062839754894
  62    -0.0021448683274209
  63    -0.060951913471284
  64      0.16860631456319
  65       -0.146091750382
  66      0.10829556732213
  67     -0.11645217831236
  68     0.077096391522794
  69     0.045721383183809
  70    -0.043992878117662
  71     -0.14646058827498
  72      0.13844527628446
  73     0.080569165065284
  74     -0.15392183889408
 Sym= A
 Ene=   -0.3213849218
 Spin= Alpha
 Occup=    2.00000
   1    0.0024359473039084
   2    -0.0078157112845959
   3      0.10150812694342
   4    -0.058343758372228
   5       0.1139946006578
   6     0.010938700659442
   7    -0.043234428160814
   8     0.067589524303774
   9     0.062123774025678
  10     0.090485921860006
  11    -0.0019912750843779
  12    0.0011286516803685
  13      0.06668110206968
  14     -0.15389184884685
  15      0.11200852253181
  16    0.0043689871122903
  17    -0.012086545560346
  18     -0.06968149033825
  19      0.17483725825962
  20      0.22119805637612
  21    0.0074352392286099
  22    -0.022239077883217
  23     0.065483065226085
  24     -0.20514508634328
  25       0.1430709693344
  26    -0.0014776120985329
  27     0.004030794086839
  28    -0.053468062041168
  29      0.11489904148789
  30      0.15754452333332
  31    0.0060359512875699
  32    -0.025568352106715
  33    -0.058397325671506
  34     -0.11881048998993
  35     0.094913688224221
  36    -0.0074870962604611
  37     0.029909773844816
  38     0.035769654851938
  39      0.11046562224809
  40     -0.11666344348999
  41    -0.0025549347264203
  42    0.0089358046286752
  43      0.13472286917562
  44    -0.047966446182292
  45     -0.17274119948473
  46    0.00068568710487158
  47    -0.0015415096035373
  48    -0.057717156565556
  49       0.1569513077888
  50     -0.16248414478436
  51    -0.0070249112400679
  52     0.019873426897028
  53      0.10429509129379
  54       -0.164239895179
  55     -0.18077529946092
  56    -0.003602868872635
  57     0.011843556577627
  58    -0.081772917791198
  59      0.21294829918003
  60     -0.12842956011616
  61    -0.00073977409521673
  62     0.010534399995438
  63      0.11294200900871
  64     -0.13543701483309
  65     -0.14866856629548
  66     -0.14582529218713
  67      0.13043117232942
  68     -0.13794949236397
  69    -0.073864804191623
  70     0.026268290259472
  71      0.14671066930404
  72      -0.1485971646424
  73    -0.062503018144213
  74      0.16866899800499
 Sym= A
 Ene=   -0.2913209169
 Spin= Alpha
 Occup=    2.00000
   1    0.0040488742191851
   2    -0.020081904215035
   3      0.17582354903183
   4     -0.20101092959723
   5    -0.032296116659923
   6    -0.010552212225019
   7     0.040301930816999
   8     -0.29214492466481
   9      0.17941980053638
  10    -0.0092429998432531
  11    0.0048144779684401
  12     -0.02250782675016
  13      0.19520536709949
  14    -0.065322172213063
  15    -0.0030623618033955
  16    -0.0057795704189068
  17     0.020267301301627
  18     -0.18781644130291
  19      0.17214454898041
  20     0.013323212483398
  21    -0.00030893666119156
  22     0.008338429088749
  23     0.069865447517137
  24     -0.15682976062356
  25    -0.021494061475561
  26    -0.010920473398059
  27     0.041381811038124
  28     -0.15986711223291
  29      0.17979297249699
  30    -0.0018528494846866
  31    0.0038005774482465
  32    -0.017514413537494
  33     0.052738908414565
  34    -0.031087347522609
  35     0.015028080228141
  36    -0.016871497000456
  37     0.064927637134682
  38      0.30429963110444
  39     -0.15869836770218
  40    -0.0049991925073676
  41    0.0025434828734096
  42    -0.013781926967418
  43     -0.13881042712372
  44      0.19470801097706
  45     0.025135407625963
  46    -0.0074456381065899
  47     0.028722895982055
  48      0.14621547264825
  49     -0.13625773044996
  50    -0.00023672058219911
  51    -0.0035832561902513
  52     0.020456897365251
  53    -0.062912562951085
  54      0.11179840561124
  55     0.022196888706374
  56    -0.0059462398486934
  57     0.020323332238431
  58      0.17195974892309
  59     -0.11687982528248
  60    0.0022970227973296
  61    0.0046342141240225
  62    -0.021309210869504
  63     -0.17618728462971
  64     0.046910402965206
  65    -0.00079692904101477
  66     -0.15580598461341
  67      0.15035489000916
  68     -0.21324509679676
  69    -0.060604820025289
  70     0.077793203300697
  71     -0.17344610470683
  72      0.12518469010959
  73    -0.044638006196324
  74      -0.1274501632037
 Sym= A
 Ene=   -0.2632720761
 Spin= Alpha
 Occup=    2.00000
   1    0.0046665412641874
   2    -0.020943456696288
   3     0.043484113160363
   4     0.072201435457321
   5     -0.38108906679961
   6    -0.0047444583789268
   7     0.017699358514769
   8      0.04810842472227
   9      0.04439377108251
  10     -0.31078198863013
  11    0.0046429335787276
  12    -0.017115986858984
  13    -0.031489114199415
  14    -0.0044143634111501
  15     0.024048238623562
  16    -0.0096949077242694
  17     0.039254714554838
  18     0.049750138902035
  19     0.012258130944184
  20      0.37992747673829
  21    0.0041179334477682
  22    -0.015009819348616
  23    -0.0098115657487347
  24    -0.031696553931438
  25     0.088655612106371
  26    -0.0046913878313962
  27     0.017488990794187
  28     0.023491032470713
  29     0.044310324027578
  30     -0.20657523839889
  31     0.041390462909535
  32     -0.18980547275103
  33     -0.13726228694861
  34     -0.14161131586622
  35      0.43059048163921
  36    0.0011312053065403
  37    -0.0044253936988461
  38    -0.009616803368051
  39     0.026159250811554
  40     -0.13200940293046
  41    0.00084775203821286
  42    -0.003967080124753
  43    -0.0016775295565919
  44    -0.013612728663275
  45     0.023315209309965
  46    5.0698883310391e-05
  47    -0.00017627809194586
  48    -0.013548605691783
  49    -0.018759339533709
  50      0.16302643629364
  51    0.00021673783841848
  52    -0.0010967584108851
  53    -0.012067564084196
  54    -0.035023425054482
  55      0.20690217185768
  56    0.0009985258883268
  57    -0.0037407192148579
  58    -0.019678759801035
  59    -0.015810756969592
  60      0.14915541530864
  61    -0.0012487251643034
  62    0.0050256624745694
  63     0.010252969366697
  64    -0.0050869333533186
  65    0.0087009582065076
  66    -0.0069320642832058
  67    -0.011368459148309
  68    -0.0071488812430219
  69     0.025124436380431
  70     0.019211770803631
  71    0.0066676786251568
  72    -0.0041411817191946
  73    0.0027770862164869
  74    0.0077603275979617
 Sym= A
 Ene=   -0.2276856826
 Spin= Alpha
 Occup=    2.00000
   1    -0.001816917388603
   2    0.0085031202094723
   3    -0.020619083188941
   4    -0.031411775374096
   5      0.19786468636394
   6    0.0012843094068359
   7    -0.0050247260909614
   8    0.0063700820656658
   9     0.024545586920991
  10     -0.20268154572404
  11    -0.0012918972916152
  12     0.004494021165908
  13     0.018785648621152
  14     0.026125148489445
  15     -0.21185843925467
  16    0.0030186396125187
  17    -0.011645038116764
  18    -0.015012148609429
  19    -0.006312121087712
  20    -0.068218626091488
  21    -0.00094426729256326
  22    0.0039810248548681
  23    -0.017830799681065
  24    -0.031347495358044
  25       0.2819981719729
  26     0.001600576913822
  27    -0.0061024069112043
  28    -0.025342483598975
  29    -0.055198282253562
  30      0.40590874848154
  31    -0.014802277026313
  32     0.069551810102544
  33     0.040345375267064
  34     0.048140658653742
  35     -0.15552326550914
  36    -0.00014510012441536
  37    0.00056012642812083
  38     0.021646483575271
  39     0.044795862114433
  40     -0.31821050640693
  41    -0.00035170904993328
  42    0.0016440649111013
  43     0.016519934062445
  44     0.035537569606033
  45     -0.24848174459057
  46    0.00014517524795364
  47    -0.00058373546859892
  48    -0.0058185794385586
  49    -0.012162412568718
  50     0.087030375905917
  51    2.4191179155156e-07
  52    4.6103094201674e-05
  53    -0.022016374321905
  54    -0.049573718637532
  55      0.35524741558501
  56    -0.00024676464798046
  57    0.00098604491706445
  58    -0.018468783548177
  59    -0.046733703959801
  60      0.32678166568387
  61    0.00040529468565682
  62    -0.001640196113339
  63    -0.0037701695866542
  64    -0.0035860160040388
  65     0.029096113457761
  66    0.0020039982979609
  67     0.001491648492209
  68    0.0015111780267005
  69    -0.016296674311025
  70    -0.011370604465694
  71    -0.00019337757673028
  72    0.00028980537346814
  73    -0.00062691102381391
  74    -0.00094092326281862
 Sym= A
 Ene=    -0.213842801
 Spin= Alpha
 Occup=    2.00000
   1    -0.00049493870377459
   2    0.0022788954081069
   3    -0.0047422937078702
   4    -0.0062914563670029
   5     0.039039126125231
   6    0.00037660456392693
   7    -0.0014634923432219
   8    0.0056544951058489
   9     0.014175372056208
  10     -0.11851412636044
  11    -0.00048657953488228
  12    0.0017181023588356
  13    0.0076067608872422
  14     0.013191947179206
  15     -0.10066481433297
  16    0.0010458196492825
  17    -0.0039775378092298
  18    -0.0047294175719862
  19    -0.0028802504798646
  20    -0.015481085056754
  21    -0.00027151871705279
  22    0.0012398070784089
  23    -0.0087564241162321
  24    -0.015915724469065
  25      0.13923825892943
  26    0.00050933197861882
  27    -0.0019618981896567
  28    -0.010293767515298
  29    -0.022281277921968
  30      0.16622206256388
  31    -0.0051954808141263
  32     0.024628517979519
  33     0.013401401340548
  34     0.017006861932225
  35    -0.055001797163997
  36    5.8544477143564e-05
  37    -0.00022604494338138
  38    0.0056301237713598
  39     0.011740084773822
  40    -0.086119080931218
  41    -0.00034639636704607
  42    0.0017452901897529
  43     -0.02536610758247
  44    -0.061141962265831
  45      0.43683940613489
  46    0.00014538075400774
  47    -0.00053462883335915
  48    -0.028529721143128
  49    -0.063355532993924
  50      0.44761892322503
  51    -5.734542602025e-05
  52    0.00022437213086746
  53    -0.0010385251372185
  54    -0.0028281062573558
  55     0.022800230441033
  56    -8.2103945429621e-05
  57    0.00030776909488192
  58     0.025225831542986
  59     0.056418672021121
  60     -0.40057484511378
  61    7.8537617497868e-05
  62    -0.00037003386578887
  63     0.026996389394672
  64     0.062883187847222
  65     -0.44303097372805
  66    0.0011357437114847
  67    0.00021314634973727
  68    0.00073072960463162
  69    -0.0065583698816804
  70    -0.0044913772859566
  71    -0.00024152159464006
  72    -0.00019427530319413
  73    -3.9646048724935e-06
  74    -0.00036603526852808
 Sym= A
 Ene=   -0.1787718368
 Spin= Alpha
 Occup=    2.00000
   1     0.061547211035036
   2     -0.30314558871681
   3      0.28626156287584
   4      0.27114401652561
   5     0.057882919935784
   6    -0.0037279666538153
   7     0.010577432666718
   8     0.087163983105637
   9     -0.13549683950365
  10    -0.015567507979184
  11     0.017281681536188
  12    -0.071995737446197
  13     0.064453258340187
  14    0.0026273759916774
  15    -0.0084402886736031
  16     -0.00186547293165
  17     0.004604675488951
  18    -0.0071841492475485
  19    -0.0014480414355126
  20    -0.0086317606685888
  21     0.018482457964522
  22    -0.075368879017853
  23     0.088883586743355
  24     0.059043271202048
  25     0.012276290333473
  26    -0.015643129947499
  27     0.063644164665682
  28    -0.099623007127165
  29    -0.012920875574427
  30    0.00010458849181075
  31    0.0037629241108177
  32    -0.018731240222815
  33    0.0078402474634138
  34      0.01126777139364
  35    0.0055500028212297
  36     0.016011611905355
  37    -0.062928763711813
  38      0.04156883057193
  39     -0.19494120445504
  40     -0.02107498228387
  41    -0.094130188231164
  42      0.46658123069688
  43      0.45206431007902
  44      0.42579523608305
  45     0.089727800973664
  46     0.025135169350011
  47     -0.10191656744487
  48     -0.16471919014078
  49    -0.015606999154014
  50    -0.016067143377175
  51    -0.023960946534617
  52     0.098244250358689
  53      0.13427395359222
  54      0.11219231217137
  55     0.020091158241319
  56    0.0010395526503299
  57    0.00088212426242394
  58    -0.024716365921504
  59    -0.021244859877319
  60    -0.0042033379820463
  61    -0.022448355357877
  62     0.091946340092005
  63      0.11894511949273
  64     0.074626892284618
  65     0.022059869504842
  66     0.049910012162558
  67     0.058433362518612
  68     0.080175165180071
  69    0.0094946391948354
  70    0.0059277843539172
  71     -0.12090978131263
  72    -0.087021851347094
  73     0.058210754947584
  74     -0.08508362933996
 Sym= A
 Ene=    -0.173861416
 Spin= Alpha
 Occup=    2.00000
   1    -0.0026778350914017
   2     0.013143235593749
   3    -0.017050084384843
   4    -0.020635701598908
   5     0.079599594963353
   6     0.001810469251741
   7    -0.0075480893008775
   8    -0.018409061415535
   9    -0.039815224416154
  10      0.32859305390329
  11    -0.00062947793059406
  12    0.0029409588879286
  13    -0.024921285998105
  14    -0.059024276552438
  15      0.42479094116688
  16    0.0021049398531633
  17    -0.0072945883155726
  18    -0.010843305325078
  19    -0.011970561411005
  20     0.023462291888238
  21    -0.00099354150561698
  22    0.0033461072479073
  23     0.016140526542895
  24     0.035008921016158
  25      -0.2928211147007
  26    0.0012072269850452
  27    -0.0050105916265808
  28     0.019017166391495
  29     0.029962321287384
  30     -0.25649860884173
  31      -0.0131400183042
  32     0.064085621753127
  33     0.036708076761079
  34     0.032567347037228
  35     -0.13704393446257
  36    0.00097652986110181
  37    -0.004265951904102
  38     0.018481439095543
  39     0.039153954982057
  40     -0.32586126382356
  41    -0.0033549991672403
  42     0.016710554596802
  43     0.028851281616634
  44      0.04470556438246
  45     -0.19769700028804
  46    0.00094486949874049
  47    -0.0038054817314867
  48    -0.018313317742772
  49    -0.029049827007438
  50      0.20050027533331
  51    -0.00068139107240588
  52    0.0028418471711739
  53    -0.017849802530544
  54    -0.045839445834348
  55      0.36050202390321
  56    -1.5293932279371e-05
  57    0.00028501120131206
  58    -0.0045198635695932
  59    -0.010493348768363
  60      0.06402813034024
  61    -0.00063918441440556
  62    0.0024933209271069
  63     0.023581978236805
  64     0.049589977904182
  65     -0.30364351693612
  66    -0.00099264769171828
  67    0.0011750555063382
  68    -0.0012556876667776
  69     -0.01542600110492
  70    -0.022368620189782
  71    -0.004610639090683
  72    -0.0025656578694738
  73    0.0030141900648637
  74    -0.0035719062257065
 Sym= A
 Ene=   -0.1649676684
 Spin= Alpha
 Occup=    2.00000
   1    -0.094928069558589
   2      0.47182989321543
   3     -0.44506311504066
   4     -0.40980659269307
   5     -0.13245811011509
   6     0.033392111917958
   7     -0.14242065712991
   8     0.053670790804525
   9      0.16864565683071
  10    -0.00012066008057694
  11    -0.019178005865442
  12     0.075407902784718
  13     -0.11972178273463
  14     -0.16317232557184
  15    -0.0040123875999981
  16    0.0029911226169067
  17    -0.0052769677077052
  18    -0.0069024810413853
  19    0.0056469922619479
  20      0.03836494057917
  21    -0.021363736795946
  22     0.087899469226092
  23       -0.120465325866
  24     -0.12571177899222
  25     0.028502919062892
  26     0.029310465325065
  27      -0.1202073612908
  28      0.16594011510293
  29    -0.00046265466265452
  30    0.0057223012472208
  31    -0.014498407494792
  32     0.073364299463978
  33    -0.027919948829891
  34     -0.02144799899203
  35    -0.047194890412431
  36     0.026810350602048
  37      -0.1162328550136
  38      -0.0878602915211
  39    -0.097006037466941
  40    -0.002473590901051
  41     -0.05773920264049
  42      0.28894566230646
  43      0.27929678095436
  44      0.25914471685216
  45     0.066116916500311
  46      0.01805351854668
  47    -0.073869668335199
  48      -0.1091937323598
  49    0.0010779051910408
  50    -0.018686757831568
  51    -0.0094777718830596
  52     0.039142999514525
  53     0.071711219576229
  54     0.093348105955857
  55    -0.0027940481443731
  56    -0.0010647965247214
  57     0.008328795598595
  58    -0.0080919027249497
  59    -0.023823077963042
  60    -0.0054395942507881
  61    -0.0074886056389864
  62     0.027095650760873
  63      0.08228810575407
  64      0.14605721886955
  65     0.044585801272923
  66    -0.080336911521089
  67    -0.066967354689456
  68     -0.10831229648543
  69    -0.029479796717653
  70    -0.028242783766572
  71    -0.067372997034383
  72    -0.039576251129161
  73     0.059877934498737
  74    -0.055232597648444
 Sym= A
 Ene=   -0.1516478971
 Spin= Alpha
 Occup=    2.00000
   1    -0.010329783872031
   2     0.052127877625046
   3    -0.073807833837534
   4    -0.097300806592426
   5      0.40625009423776
   6    0.0017173422817996
   7    -0.0075258225004292
   8    0.0068839466590084
   9     0.012977349141275
  10      0.10143646407256
  11    -0.00016259960975414
  12    0.00044838332233015
  13    -0.0051322224482406
  14     0.019352288268315
  15     -0.30264117643027
  16    -0.0078497892340651
  17     0.026613389672948
  18      0.04940343960633
  19     0.062416699714145
  20     -0.24167938645805
  21    -0.0011683591550569
  22    0.0049532986739673
  23     0.006920737290421
  24     0.026648438164627
  25     -0.36970540793064
  26    0.0016705842013722
  27    -0.0067772713704077
  28     0.020918977148062
  29    -0.0024435749478052
  30     0.068628556776209
  31     0.055830959430929
  32     -0.27561950826028
  33     -0.15273134052714
  34      -0.1690276988818
  35      0.60766054668856
  36      0.00326048707314
  37    -0.014273446489545
  38    -0.011132778685989
  39    0.00075494098564284
  40    -0.049359141878091
  41    -0.0048635762393057
  42      0.02444641102038
  43     0.026204468075157
  44     0.027558446460682
  45    -0.033860113478158
  46    0.0016475509929308
  47    -0.006790340630268
  48    -0.012522915717623
  49    -0.0054916318809678
  50      0.04193767776486
  51    -0.00070037328897597
  52    0.0028960558717326
  53    0.0018199287581816
  54    -0.001142972665787
  55     0.064178162255898
  56    0.00018130821537695
  57    -0.00040665264194988
  58    -0.0018653328414521
  59    -0.00039492526604078
  60    -0.007709118278806
  61    -0.0010419916535608
  62     0.003981330200327
  63     0.013386936992689
  64     0.023785173137019
  65    -0.060709827738046
  66    -0.015292655960962
  67    -0.014441365850159
  68    -0.016191479172182
  69     0.088110629097132
  70     0.089822905176913
  71    -0.005183203914301
  72    -0.0034664431314135
  73    0.0062474055283832
  74    -0.0034261232218386
 Sym= A
 Ene=   0.03736904483
 Spin= Alpha
 Occup=    0.00000
   1    0.00016373737719742
   2    -0.001005871035167
   3      0.01823410647466
   4     0.038373307738837
   5     -0.32215524576768
   6    1.2037966261989e-05
   7    5.9639654138023e-05
   8    -0.020631006941816
   9    -0.046926495541851
  10      0.36963809289471
  11    -1.5223043517877e-05
  12    -0.00033464970796137
  13     0.017203820966467
  14     0.035133431320967
  15     -0.29146038948702
  16    0.00055211276256353
  17    -0.0053692865212398
  18      0.00942127296757
  19     0.023371382968914
  20     -0.19110442697034
  21    -0.00013602909200596
  22     0.001396047921958
  23    -0.024536187699082
  24    -0.044206980368823
  25      0.37037722893909
  26    4.6775440349885e-05
  27    -0.00029557939617161
  28    0.0044821199539233
  29     0.010693644493595
  30    -0.088412663657915
  31      0.00952666353735
  32    -0.052592856253836
  33      -0.0348595927179
  34    -0.023406068963271
  35     0.088001053833828
  36    -9.5709350715081e-05
  37    0.00046977449189778
  38     -0.02599249007034
  39    -0.060552109269229
  40      0.42944877346735
  41    0.00013801619803225
  42    -0.00084088603755604
  43     0.025525244421667
  44     0.059744072796214
  45     -0.41254966196794
  46    -8.4917800088299e-05
  47    0.00040296632880526
  48    0.0028325026578379
  49    0.0053150686545843
  50    -0.038019030530539
  51    -7.0319189980325e-07
  52    4.9718226228756e-05
  53    -0.026322378847125
  54    -0.059964367688893
  55      0.42524217077073
  56    4.5155529954663e-05
  57    -0.00023611676718278
  58     0.017764621988439
  59     0.040740014758511
  60     -0.28838752534442
  61    -0.00010593653566783
  62    0.00047204078458308
  63     0.013682541803927
  64     0.031144392196423
  65     -0.21496182614605
  66     0.001127226968304
  67    -0.00067156703160764
  68    0.00052171406445192
  69     0.022199817356835
  70     0.037173503948572
  71    -0.00046642563168124
  72    2.240441132464e-05
  73    0.00027696566602059
  74    0.00011733615633824
 Sym= A
 Ene=   0.06843673514
 Spin= Alpha
 Occup=    0.00000
   1    1.676279580988e-05
   2    6.2895590207866e-05
   3    -0.010784343965558
   4    -0.023765864916791
   5      0.19904408369011
   6    7.7924823510465e-06
   7    -0.00015666518919063
   8    0.0065431058574384
   9     0.014730715303476
  10     -0.11411110322614
  11    6.7293872007785e-05
  12    -0.00051954819953144
  13    0.0028538424145524
  14    0.0092911035663809
  15    -0.067268779632841
  16    -0.0008399615232965
  17     0.006989777974679
  18     -0.01020462497072
  19    -0.023568890039799
  20      0.20740758983112
  21    0.00011935483017516
  22    -0.00076959518064921
  23    0.0060312515029179
  24    0.0070087064202318
  25    -0.072109763061298
  26    -0.00012843403206928
  27    0.00057911576717738
  28     0.007665285987566
  29     0.015388290153608
  30     -0.12262222457332
  31    -0.0095307638917902
  32     0.053709246960919
  33     0.029389550332916
  34     0.030259103835916
  35    -0.080995997138237
  36    3.6862455824413e-05
  37    -0.00015568431403271
  38     0.001229435692956
  39     0.003164160270569
  40    -0.021651654937849
  41    -6.7234080346486e-05
  42    0.00030061360088229
  43      0.02977689200003
  44     0.067524709891672
  45     -0.47582185816476
  46    1.9153628804841e-05
  47    -2.702761567153e-05
  48    -0.035187723566439
  49    -0.080165674324048
  50      0.56600901198782
  51    -2.2468167983637e-05
  52    9.6308512923247e-05
  53    0.0060236035365602
  54     0.013617398656711
  55    -0.096975987716138
  56    3.6024869071243e-05
  57    -0.00021491343491638
  58     0.030572617995122
  59      0.07018047656216
  60     -0.49633395983862
  61    -4.8779813671262e-05
  62    0.00029367335980603
  63    -0.034031039485251
  64    -0.078045172925764
  65      0.55084844389886
  66    -0.0001359091290357
  67    -0.00012779915390433
  68    -0.00062936229684108
  69    -0.031624141510179
  70    -0.033696308123927
  71    -9.7409149268849e-05
  72    -7.2470934105651e-05
  73    6.9329066448719e-05
  74    -0.00018993315009626
 Sym= A
 Ene=    0.0812531113
 Spin= Alpha
 Occup=    0.00000
   1    0.00020510375280647
   2    -0.0013448476282627
   3      0.02714111441629
   4     0.059530266431024
   5      -0.4875780265262
   6    9.0026496464783e-05
   7    -0.00050202874909968
   8    0.0010234379712968
   9    0.0017044233523695
  10    -0.022464876966562
  11    0.00013837750105264
  12    0.00026513379147603
  13    -0.026174300521081
  14     -0.06829053306239
  15      0.50712155196291
  16    0.0021483741063883
  17     -0.01755151431301
  18     0.023993138303951
  19     0.055880033491313
  20     -0.50607242772427
  21    2.6564120133195e-05
  22    -0.00022774364979383
  23    0.0043247966687149
  24     0.019781454174342
  25     -0.12472087346753
  26    0.00017721448991032
  27    -0.00060193430063655
  28    -0.036460403301721
  29    -0.072132983650108
  30      0.58287292184395
  31     0.022681158884141
  32     -0.12882961013025
  33    -0.064086527301878
  34     -0.08037198622853
  35      0.18583784663288
  36    -0.00022653178480992
  37    0.0010583824305249
  38     0.004949623565985
  39    0.0081406567233163
  40    -0.060568851110825
  41    6.4543740557709e-05
  42    -0.00034007465770352
  43    0.0069931915403467
  44     0.016054268809827
  45     -0.11555469682188
  46    -4.6774687163976e-05
  47     0.000245387790649
  48    -0.010953764533862
  49    -0.025811407275893
  50      0.18159718096146
  51    4.3450976332012e-05
  52    -0.0002163004698051
  53    0.0048761372214154
  54     0.011241213276397
  55    -0.079324956334634
  56    -0.00010559118510864
  57    0.00051391154886209
  58     0.007039412422735
  59     0.014639063195054
  60     -0.10494085151613
  61    0.00023201315023687
  62    -0.001149350666073
  63    -0.011510144926835
  64    -0.025171140087347
  65      0.18080732676787
  66    0.00087283212020437
  67    0.0021177096475899
  68    0.0016112349022962
  69     0.085861221517404
  70     0.075556806173194
  71    -2.2672797972833e-05
  72    0.00025527935146715
  73    -9.0415720673997e-05
  74     0.000212768368919
 Sym= A
 Ene=     0.118505478
 Spin= Alpha
 Occup=    0.00000
   1    -7.1196095631778e-05
   2    0.00031732522296514
   3    0.0043942619780039
   4     0.013101775418161
   5     -0.10265123653345
   6    9.4066339398646e-05
   7    -0.00020014127361944
   8    -0.027714087940069
   9    -0.061577673430529
  10      0.49121356955412
  11    0.00050188586465769
  12    -0.0027472152440805
  13     0.011319360314369
  14     0.018835313502414
  15     -0.15990897297937
  16    0.0017016448238064
  17    -0.012620048000982
  18     0.011147325858961
  19     0.034474857504836
  20     -0.30104792845407
  21    -0.00025571987775359
  22    0.0021951455893407
  23    -0.033194041628221
  24    -0.055462384029718
  25      0.48154036274589
  26    0.00029104344630632
  27    -0.0016589163122564
  28     0.018563130331739
  29     0.039526243748254
  30     -0.32033470960466
  31     0.013073351199927
  32    -0.076193484977007
  33    -0.050925601270872
  34    -0.033212532016495
  35     0.091835437754492
  36    -0.0001666058610074
  37    0.00070917279057808
  38     0.027695937914005
  39     0.063697616949909
  40     -0.44376585963744
  41     0.000259808072946
  42    -0.001502625659891
  43    -0.0038210596655186
  44    -0.0074567378508456
  45     0.062413177347402
  46    -0.00012149732037251
  47    0.00065677959713408
  48    -0.019915081474237
  49    -0.046960775807579
  50      0.33071270525229
  51    2.2868079131264e-05
  52    -0.00013825305959171
  53     0.029593722019301
  54      0.06741276376168
  55     -0.47600376546292
  56    0.00010658926546492
  57    -0.00051921089051785
  58    -0.017904973801446
  59    -0.039995332586782
  60      0.28429898729705
  61    -0.00016853605623413
  62    0.00088632673001629
  63    -0.0066400480050618
  64    -0.015736771764866
  65      0.11763885479362
  66    0.0018668932891158
  67    0.0005801998440437
  68     0.002456211699722
  69     0.040750257670999
  70     0.063127879569571
  71    -0.0004654929929791
  72    0.00021220669777143
  73    0.00047221554486099
  74    0.00031258265836928
 Sym= A
 Ene=    0.2167567348
 Spin= Alpha
 Occup=    0.00000
   1    0.00056618155304476
   2    -0.0034317877170919
   3    -0.021004094408175
   4    -0.037344661940492
   5      0.27888146010626
   6    -0.00046179572451506
   7    0.0024557161487263
   8       0.0133435692386
   9     0.025132005081164
  10     -0.20370798612818
  11    0.00098016898345232
  12    -0.0045236940093634
  13    -0.015418952621226
  14    -0.047294197719469
  15      0.33044533774327
  16    0.0034374517338632
  17     -0.02396747406413
  18     0.015144498566294
  19       0.0447719175573
  20     -0.40657615882087
  21    0.00056072973170259
  22    -0.0021543266874255
  23    -0.032840311428076
  24    -0.042969758582409
  25      0.40719057961386
  26    -0.00026561685163516
  27    0.0012195414900037
  28     0.019446879939637
  29     0.046748259298966
  30     -0.35573675989296
  31      0.02186238817421
  32     -0.13581770399135
  33    -0.072895658721858
  34    -0.062348349824719
  35     0.057899940791954
  36    -4.3315343953375e-05
  37    0.00031064898432199
  38     0.016349472206536
  39      0.03554739668498
  40     -0.26026862714014
  41    -0.00017265567373881
  42    0.0011119353998572
  43    -0.019271345001917
  44    -0.044482397194125
  45      0.30484802519559
  46    0.00010854555971422
  47    -0.00062616774712569
  48     0.022413963927487
  49     0.052347673800717
  50     -0.36988873105363
  51    -2.3496444041115e-05
  52    0.00014463009906222
  53    -0.026665631141606
  54    -0.060596215952944
  55      0.42768059885307
  56    -0.00011541734468434
  57    0.00059805073477181
  58      0.02660861608508
  59     0.059883750924332
  60     -0.42582555692711
  61    0.00018616924891167
  62    -0.00097982255789724
  63    -0.023801922410641
  64    -0.054024305232656
  65      0.37667152756789
  66    0.0041701620797027
  67    0.0057918588884427
  68    0.0033734106310862
  69      0.10306018908176
  70      0.11460703011915
  71    0.00052848823365149
  72    -0.00023826352919227
  73    -0.0005405356219621
  74    -0.00037115912608258
 Sym= A
 Ene=    0.2600143089
 Spin= Alpha
 Occup=    0.00000
   1    -0.001354077304382
   2    0.0082818460540473
   3     0.026833077193268
   4     0.052168017470619
   5      -0.3514260304281
   6    0.0015745336379229
   7    -0.0083923858325369
   8    -0.034146251783217
   9    -0.063568796688703
  10      0.52409449643268
  11    -0.0014561650229801
  12    0.0068408078064244
  13     0.019334240396461
  14     0.059314526354469
  15     -0.40244414873443
  16    -0.0017371196885532
  17     0.014417123685349
  18    -0.020125299925464
  19    -0.039468796080307
  20      0.31916658775606
  21    -0.0018230937728415
  22    0.0091195527244944
  23      0.02447629073077
  24     0.030104194773913
  25     -0.28800561157812
  26     0.001608421925213
  27    -0.0087932691512031
  28     -0.01656539462986
  29    -0.038897937046888
  30      0.28012436039711
  31     -0.02579603503358
  32      0.16416291168135
  33     0.065834691186303
  34     0.063787953249432
  35    -0.0045225160250833
  36    -0.00029791346587129
  37    0.0013221029406377
  38     0.031703605869542
  39     0.075033473566933
  40     -0.50423723544342
  41    0.00066102034756285
  42    -0.0040659492609247
  43    -0.019733902062036
  44    -0.043079607581697
  45      0.32762154241412
  46    -0.00037300069352513
  47    0.0020459193713708
  48     0.017623001539385
  49     0.036702020477755
  50     -0.25765868969489
  51    3.1752722361296e-05
  52    -0.00012560745671118
  53    -0.016648818685164
  54    -0.038424981652911
  55      0.27254328064802
  56    0.00040934602337812
  57    -0.0023287899833106
  58      0.01825883690994
  59     0.044203009758232
  60     -0.30591051321353
  61    -0.00043034795184296
  62    0.0024750360428788
  63    -0.023407287645493
  64     -0.05284019141463
  65      0.38890352696438
  66    -0.005684408300771
  67    -0.0060180491874833
  68    0.0013636040006208
  69     -0.13372560483405
  70     -0.13190364530925
  71    -0.0014848221758086
  72    0.00037204098402412
  73    0.0018602656329219
  74    0.0010370181573325
 Sym= A
 Ene=    0.3046798083
 Spin= Alpha
 Occup=    0.00000
   1     0.014233709339727
   2    -0.097381381247593
   3    -0.051641380657454
   4    -0.073287475559815
   5     0.018925508688925
   6     0.043245923894402
   7     -0.24894640803615
   8     0.050149343573656
   9     -0.22632873003602
  10    -0.068747029373026
  11    -0.015073494275509
  12     0.075641372610594
  13     0.023961747579356
  14     -0.24360693169255
  15     0.027761699570562
  16      0.09821684054185
  17     -0.54694564735991
  18     -0.32760377453254
  19     -0.33793135293398
  20     -0.13537428314479
  21    -0.0037924902051799
  22    0.0091008422820697
  23     -0.20141639317046
  24      0.03184582012153
  25     0.046278419459645
  26     0.031522721144648
  27     -0.18497014597284
  28     -0.16714752777931
  29     0.028203685528592
  30    -0.041921664916158
  31      -0.1622672641637
  32        1.040931717306
  33     -0.16956505051933
  34      -0.2155409124003
  35      0.35920044391047
  36    -0.031461217257558
  37      0.18130130873745
  38      0.14237458444051
  39     -0.14537445588213
  40    0.0098270372567139
  41    -0.00038608307697532
  42    0.0075312314402727
  43    -0.0012955715888975
  44    -0.074641203522568
  45     -0.02127531168352
  46    -0.0070129569309578
  47     0.038473833025772
  48     0.012472149042981
  49    -0.018489694789695
  50    0.0043403716583705
  51    -0.0027989230794377
  52      0.01809998599888
  53    -0.021885746231271
  54    -0.028886232186556
  55    -0.011528226135895
  56    -0.019168772550874
  57      0.11209184738146
  58     0.013252078922722
  59    -0.085098027050188
  60    -0.0037073843697145
  61     0.011406643163871
  62    -0.063127392551044
  63    -0.0062925227124707
  64     -0.12417977758997
  65    -0.030209126612497
  66      0.28430624752965
  67      0.26725535983816
  68      0.16989443044753
  69     -0.52528328693591
  70     -0.58621684917023
  71    0.0021086687558738
  72    -0.017915216161526
  73     -0.12542378938625
  74     -0.11203398586683
 Sym= A
 Ene=      0.33581587
 Spin= Alpha
 Occup=    0.00000
   1    -0.0098991146854331
   2     0.059444108245004
   3      0.11445531541373
   4     -0.14950694308499
   5    -0.022047130501538
   6     0.039237309066959
   7     -0.23032602545875
   8      0.27043397476679
   9     -0.21836904319058
  10     0.007501872052913
  11    -0.026793387009643
  12      0.15850277517488
  13       0.1669812159638
  14     -0.20440768621537
  15    -0.045051126077948
  16    -0.0021459027119367
  17     0.010506123570411
  18      0.27810192133039
  19     -0.17844873610809
  20     0.026316636230034
  21    0.0079701167808629
  22    -0.044173069074237
  23      0.18652755630876
  24     -0.22654256195675
  25    -0.026846507084875
  26    -0.0051670105616678
  27     0.041262897676953
  28      0.19338318456019
  29     -0.15763920433053
  30    -0.0010881893323586
  31      0.03568211562266
  32     -0.23409942099787
  33      0.24099957313147
  34     -0.31229696430927
  35     -0.13009961843206
  36    -0.058323629765419
  37       0.3398717273908
  38      0.20727688287095
  39     -0.24253750251538
  40    -0.032088111906715
  41    -0.011962824761037
  42     0.083267232274982
  43    -0.080164520807341
  44    -0.097321104516121
  45    -0.013816890719777
  46    -0.022892394205709
  47      0.13827735862056
  48     -0.10297596662418
  49     0.093826312578323
  50    0.0044798174785444
  51    -0.034352232487766
  52      0.21216931315228
  53     -0.24399326150351
  54    0.0012007817369367
  55    -0.012758552226006
  56    -0.054269330195581
  57       0.3306696228751
  58        -0.18119073174
  59     -0.25219763882621
  60    -0.049798127998203
  61    -0.013182402791122
  62     0.085244227597969
  63    -0.018715056334116
  64     -0.34014910417485
  65    -0.043775659275934
  66      0.16409391167812
  67     -0.24538448245507
  68     -0.23405936438023
  69      0.52895206151988
  70     -0.19141137108968
  71     -0.18522325374645
  72     -0.35773128506231
  73      -0.5162863611862
  74     -0.40629312545426
 Sym= A
 Ene=    0.3513564433
 Spin= Alpha
 Occup=    0.00000
   1    -0.026809654771343
   2      0.17613390602202
   3       0.1683597301754
   4     0.027716593761417
   5     0.023767906897585
   6     0.036314260277915
   7     -0.20692002888701
   8      0.14429012432443
   9    -0.016505745827126
  10    -0.0043406277585177
  11    -0.012439085790827
  12      0.07195028633416
  13      0.15976462814782
  14     -0.10883578859736
  15     0.010760625592716
  16     -0.01668430845492
  17     0.099219518800999
  18      0.17848353423512
  19     -0.16150815462734
  20    -0.053762489071139
  21    0.0023255569763694
  22      -0.0153034426699
  23      0.21628134611998
  24     -0.23928680514573
  25     0.015689461258802
  26    0.0069917170275823
  27    -0.030950489154522
  28      0.20507348717097
  29     -0.14064688844981
  30    -0.021438652426559
  31    -0.015590457601214
  32      0.10617881596566
  33      0.39620633260272
  34     -0.23612514526565
  35     0.090303023681581
  36    -0.040754969952559
  37      0.23059746402957
  38      0.19695622000604
  39      0.10445477688463
  40     0.031145173042302
  41     0.051470250400622
  42     -0.33564015923492
  43      0.23823886253823
  44     0.095366707914233
  45     0.026604026000102
  46    -0.012515713466146
  47     0.056705161718704
  48      0.32293782118539
  49     -0.20364356723366
  50    -0.0081705748308552
  51     0.044748093513649
  52     -0.27240179543835
  53      0.37521895507052
  54     -0.15374057711124
  55    0.00094823172956458
  56     0.047322271098255
  57     -0.29457113927339
  58      0.29685064736844
  59      0.12432365239295
  60     0.036879168970502
  61     0.028362969270076
  62     -0.16884716827816
  63     0.047244661697608
  64      0.11839708726357
  65     0.017663918812521
  66     0.089524420097259
  67     -0.26602151475398
  68     -0.16576547858063
  69      0.25280134803925
  70     -0.51355969518953
  71      0.21605096745531
  72       0.5774761456453
  73       0.4727926731561
  74      0.21665075643603
 Sym= A
 Ene=    0.3534610281
 Spin= Alpha
 Occup=    0.00000
   1     0.019765725757264
   2     -0.13119318592615
   3     -0.14822527864041
   4    -0.092058848119263
   5    -0.052812601663292
   6     0.024676368891664
   7     -0.14544813551887
   8      0.15779918793007
   9     -0.14694461841723
  10     0.038863701883717
  11      0.04379570427172
  12     -0.25840018590099
  13     0.004114413281495
  14     -0.28609258356425
  15     -0.11998167100022
  16     0.029119020394328
  17     -0.17523433346776
  18     -0.16313538379539
  19     -0.16776291414586
  20      0.12721682063095
  21     0.060074358142499
  22     -0.35915467489198
  23     -0.30392260500392
  24     0.081942714666001
  25      -0.0892997929143
  26    0.0068655620221748
  27     -0.04885366088118
  28      -0.1173822172544
  29      0.18038831335857
  30     0.056175382576667
  31     0.059859355801205
  32     -0.40645959276816
  33     -0.40833120870342
  34      -0.3463915958347
  35     -0.40462855539803
  36    -0.027430167317291
  37      0.16173640183805
  38      0.16732776527876
  39    -0.082807475185087
  40    -0.022557980955484
  41     0.019130827197681
  42      -0.1197567411808
  43      0.11760864759556
  44    -0.055343880476559
  45    0.0094988618825482
  46    -0.0098677942207566
  47      0.04863985926981
  48      0.15165928365541
  49     -0.14095742576896
  50    -0.015255501663251
  51     0.024000457475744
  52     -0.14465195144295
  53      0.15645250344182
  54     -0.10389172104085
  55    -0.00094964274604088
  56    0.0016000272409462
  57    -0.014460907550367
  58      0.14351322800749
  59    -0.024824681856165
  60    0.00034669639906306
  61     0.021773720795757
  62     -0.12803185710752
  63      0.04403565853053
  64     -0.03476301097728
  65    0.0075438188306123
  66      0.42157736243941
  67      0.49418590626353
  68      0.22259071332045
  69      0.51331065478277
  70      0.52006806249476
  71      0.13900951364078
  72      0.27552787527841
  73     0.093394772897616
  74    0.0073656996157046
 Sym= A
 Ene=    0.3588590132
 Spin= Alpha
 Occup=    0.00000
   1     -0.09406088924727
   2      0.59920446645638
   3      0.15242421084521
   4      0.32859596056218
   5     0.053438775013727
   6      0.11338174692592
   7     -0.64166691447571
   8       0.2697848910933
   9      0.30385156792316
  10     0.045200155321786
  11     0.012869588424141
  12    -0.090651782139673
  13       -0.120285422591
  14      0.04811073908326
  15     0.007588761225885
  16    -0.020926110795773
  17      0.12525264443492
  18    -0.079227439356031
  19     0.053372608221165
  20    -0.0039082799351718
  21    -0.0065870054940861
  22     0.026751249755645
  23    -0.049794910843236
  24    -0.0068647779225563
  25    -0.0047735949398518
  26     0.090675751315913
  27     -0.52935666054047
  28      0.23111625103086
  29      0.13015138913851
  30     0.029549758066615
  31    0.0037485187638693
  32    -0.023187125472133
  33     -0.10470798595665
  34      0.16140069413882
  35    0.0099842342276937
  36     -0.11689580044675
  37      0.66446030238475
  38      0.22964429179136
  39      0.29777284910473
  40     0.062055667710615
  41     0.093856261627434
  42     -0.60083942689101
  43      0.15434940237593
  44      0.32112033439398
  45     0.053073097513811
  46    -0.097633269769433
  47      0.57407420048924
  48      0.21886724221162
  49      0.16334683612676
  50     0.037539559876839
  51    -0.0095902879889674
  52     0.073172508402565
  53     -0.10436695754557
  54    -0.043532851057207
  55     -0.01352375603898
  56     0.010587704992715
  57    -0.061731176857745
  58     -0.11155356838829
  59    -0.053155127410434
  60    -0.013062764926553
  61    -0.015283573291358
  62      0.10563909733273
  63    -0.073559408757432
  64    -0.029244129318441
  65    -0.011441652987034
  66    -0.046067614000478
  67    0.0055164368349492
  68      0.41077483344649
  69     -0.16502613710523
  70      0.16627731300948
  71      -0.4658328674145
  72     -0.10716142154407
  73    -0.087838511309658
  74    -0.046240490691384
 Sym= A
 Ene=    0.3830229103
 Spin= Alpha
 Occup=    0.00000
   1     0.025604635614111
   2     -0.16196747279941
   3     -0.12735615969146
   4     0.021703132529333
   5    -0.0062451114337888
   6    -0.031469005867931
   7      0.18903813805032
   8     -0.19488216994577
   9     0.034338946925534
  10    -0.00026516457142512
  11    0.0032254090387543
  12    -0.014711391303648
  13      0.10703316233027
  14    -0.025394960930534
  15     -0.01249043312653
  16    0.0078345097342355
  17    -0.048640461728487
  18    -0.033830185898319
  19     -0.16354968257427
  20    -0.0066443053135279
  21     0.054918353942992
  22     -0.33413302696696
  23     -0.10207380487188
  24    0.0082947860951742
  25    -0.0025917953495598
  26    -0.033549017923267
  27      0.19107793103359
  28     -0.10640833328456
  29      0.11549899749833
  30      0.00652624894379
  31    -0.0082199456530474
  32     0.052012721428291
  33      0.22674456549313
  34     -0.42556006769534
  35    -0.042481858776838
  36    -0.035996530583801
  37      0.20263203982656
  38      -0.2994615083752
  39      0.33332391257653
  40      0.02638360137709
  41     0.022511018273425
  42     -0.14419072901444
  43     -0.19939038899256
  44      0.34102948792586
  45     0.037136173923938
  46    -0.0012005100053265
  47     0.021173169938403
  48     -0.12121187152565
  49      0.39904241430807
  50     0.048628396659935
  51     -0.03183307939171
  52      0.19960144287085
  53     -0.16731656828916
  54      0.26171768905713
  55     0.026879808312604
  56    0.0094432365955652
  57    -0.061102478943016
  58    -0.046970181070305
  59      0.20402680064672
  60     0.025648721450815
  61     0.053249206003975
  62     -0.32150134552725
  63     -0.25079803095359
  64      0.29711323409422
  65     0.027228866065364
  66     0.056739051557072
  67      0.29966374829174
  68     0.015031495160579
  69      0.41813671223638
  70     -0.36923929308397
  71     -0.42869248004141
  72     -0.35161430598449
  73       0.1343483892711
  74      0.55130847491058
 Sym= A
 Ene=    0.3987323535
 Spin= Alpha
 Occup=    0.00000
   1     -0.03851082813953
   2      0.24704158373455
   3     -0.18186804976667
   4      0.41397857509207
   5     0.042629873731649
   6     0.093220811227059
   7     -0.54697899835072
   8     -0.31137942746717
   9      0.28083437309309
  10     0.018063523993048
  11    -0.090486735572069
  12      0.55101210511332
  13     -0.24086944965544
  14      0.13286082426499
  15     0.001288328992521
  16     -0.02011584950608
  17      0.12197727697359
  18     0.085300889896958
  19    -0.016954042972299
  20    -0.013471159557073
  21      0.08075965252255
  22     -0.50383412783714
  23    -0.095258866665634
  24      0.12089964981174
  25     0.024227511609328
  26    -0.015397752489352
  27     0.079930574846288
  28    -0.0089634339681514
  29      0.41159345117281
  30     0.044327207081069
  31    0.0058451903271088
  32    -0.036173136036458
  33      0.33119055332119
  34     -0.22681323318238
  35     0.010730143895377
  36     0.061465981397155
  37     -0.36647550749416
  38      0.11312861025955
  39     -0.13596156321014
  40    -0.011390200029454
  41    -0.034739433628797
  42      0.22279410302369
  43     0.013901641838415
  44     -0.20344157458086
  45    -0.028852416408519
  46     0.014629934318044
  47    -0.090678879964355
  48    -0.043634610235008
  49     -0.15044561729626
  50    -0.023654347861261
  51     0.012844080461179
  52    -0.083471618138964
  53    0.0080219565293447
  54    -0.041688761937635
  55    -0.0056534454527469
  56    -0.012475632583158
  57     0.081837559599265
  58    -0.027536244147994
  59    -0.050796847107002
  60    -0.0085468468877377
  61    -0.046634117887503
  62      0.28270665175069
  63      0.18408031471868
  64    -0.063865177986145
  65     0.001675720334458
  66     -0.52055297861746
  67      0.40225422025758
  68      0.35466004787732
  69      0.32216150804373
  70     -0.36162990840742
  71      0.19110629082556
  72      0.06161962462662
  73    -0.088642297490243
  74     -0.28468370399081
 Sym= A
 Ene=    0.4208550118
 Spin= Alpha
 Occup=    0.00000
   1    0.0092662349568452
   2    -0.057130832885602
   3    0.0013014045105179
   4    -0.046267436816971
   5    -0.00063835873177097
   6    -0.064332403618794
   7      0.37291869265832
   8     -0.11844967680048
   9     0.088822195075533
  10    -0.0038214743598731
  11      0.11798684366679
  12     -0.71873518011469
  13      -0.1501553658658
  14     -0.10186679217683
  15    -0.0046081722951386
  16     -0.12241449714021
  17      0.74043428713322
  18     -0.14862794471655
  19    -0.086423176671755
  20    -0.063342670713422
  21     0.086494345780938
  22     -0.52538304056219
  23     -0.13148519898348
  24     -0.22697900348338
  25    -0.016955545704959
  26    -0.033967849100956
  27      0.19909378679875
  28     0.045979333130611
  29     -0.15076655028859
  30    -0.023808686973319
  31    8.1322844404157e-05
  32    0.0094650732883454
  33      0.21437687038264
  34      0.10160903802752
  35     0.099013068725918
  36     0.095188685113484
  37     -0.56884523354797
  38    -0.015195070966453
  39      0.14774883278178
  40     0.022938913588659
  41     0.021565361524324
  42     -0.13621123872443
  43      0.28371851886187
  44      -0.1955989854996
  45    -0.010705565937037
  46     -0.12082892483935
  47       0.7381904517537
  48    -0.032530363379922
  49    -0.079487448252675
  50    -0.013165201380495
  51     0.070120545279999
  52     -0.42830876453083
  53     -0.21518076421844
  54     -0.17737289572663
  55     -0.03865701293069
  56     0.017937329527036
  57     -0.10913695787897
  58     -0.26957319855739
  59      0.10905306725584
  60    -0.00080438004472668
  61      -0.1013004700408
  62      0.62676068226205
  63     0.051139574782848
  64       0.1079794809003
  65     0.017287636446869
  66      0.42937044543985
  67      0.33614092086828
  68     -0.26812005016587
  69    -0.069954919971634
  70      -0.1665888061507
  71     -0.31218655947813
  72     0.088109389469181
  73    -0.061446767133248
  74     -0.23647309030193
 Sym= A
 Ene=    0.4285981598
 Spin= Alpha
 Occup=    0.00000
   1    -0.047014301121898
   2      0.30636880063365
   3      0.30924780043867
   4    -0.030166432208385
   5     0.014942827715765
   6    -0.029585460097598
   7      0.17397256319318
   8    -0.063406616257133
   9      0.18887527736117
  10     0.019937164807697
  11     0.081992295784783
  12     -0.51040431069708
  13    -0.089316164821173
  14    -0.016666394671895
  15    -0.007555732174539
  16    -0.063510297947848
  17      0.39148980662739
  18     -0.19841219692341
  19    -0.079694268160376
  20    -0.026281311916469
  21    0.0019652973787552
  22    -0.019607524902254
  23     -0.17070220332584
  24     -0.28989100986237
  25    -0.043171754996524
  26      0.09766045866817
  27     -0.59834678677508
  28      0.12899120896601
  29    -0.048648637120718
  30    -4.2064545456414e-05
  31    0.0010648102180056
  32    -0.0045672522666825
  33     0.089886286326604
  34    -0.082450981013551
  35    -0.00024404735326993
  36     0.014144698336998
  37    -0.078256400401815
  38    -0.093907638381858
  39     0.043964764490032
  40    0.0017481339659489
  41    -0.021573586380344
  42      0.13894680498218
  43     -0.24294475535832
  44     0.087147639433158
  45    -0.0028136252982123
  46      0.12749454768716
  47      -0.7747859316403
  48     0.089212306055387
  49     -0.10780994792026
  50    -0.0096611559717095
  51      -0.1382414719419
  52       0.8435741480237
  53    -0.011964816260009
  54    -0.014921431265962
  55    -0.002989860871343
  56      0.11262135419957
  57     -0.68828230704772
  58      0.03659753702245
  59     -0.10042772120682
  60    -0.011698561667843
  61    -0.060359118353391
  62      0.36335041746798
  63     -0.14706440230791
  64     -0.11914687973782
  65    -0.026308299433093
  66      0.26736510416768
  67     0.067048200028837
  68      0.23588618702024
  69     0.081066748196266
  70    -0.081431712602411
  71      0.52215745445597
  72     -0.45257707570016
  73      0.32203383180415
  74     -0.25600696574114
 Sym= A
 Ene=    0.4367402135
 Spin= Alpha
 Occup=    0.00000
   1    -0.010144153634258
   2     0.061780427068406
   3      0.21601189324874
   4     -0.13843017268873
   5    -0.010269951172717
   6    -0.066482850489012
   7      0.40609523629886
   8    -0.092322921179874
   9     0.075592424197427
  10     0.015339276426976
  11    -0.0090712022443789
  12     0.053845321346206
  13      0.27635440470113
  14       0.1837745101273
  15     0.012427484714226
  16      0.10781349488091
  17     -0.65206640356223
  18     -0.18933660364597
  19     0.080950064835451
  20     0.055273269268511
  21      -0.1387990576996
  22      0.85220188519613
  23    -0.044810745501587
  24     0.012433705265887
  25    -0.019749574414453
  26      0.11677284022793
  27      -0.7128645859509
  28     -0.14858044161364
  29     0.018305188245693
  30    -0.00012703279606709
  31    -0.011913360611568
  32     0.068135010567816
  33    -0.077578220202296
  34     -0.44802732049598
  35     -0.13362199629687
  36     0.096052416846796
  37     -0.58203940686563
  38     0.077992930243329
  39      0.10138364517382
  40     0.016093026797014
  41     -0.01280628183007
  42     0.081389780179582
  43      0.10489370408102
  44     -0.18849206894807
  45    -0.019354688936265
  46    -0.065233948491957
  47       0.4041247817033
  48     -0.12117854758447
  49     0.024513432602043
  50    -0.0043435436831004
  51     0.052898657637351
  52     -0.33248444465313
  53     -0.14330929607521
  54    -0.042786607022269
  55    -0.014672413329219
  56     0.024785193553555
  57     -0.15344131604876
  58     -0.13266239055689
  59      0.24800289438256
  60     0.026443319826027
  61    -0.090526522010807
  62      0.55820068118884
  63     0.074183243100806
  64      0.14830028867632
  65     0.026666459786652
  66     -0.15652931400507
  67      -0.3921910900105
  68       0.4139614306359
  69      0.33104576606705
  70    -0.054962383978168
  71     -0.24204842750193
  72     0.050567891135509
  73      0.14486687827633
  74      -0.1571379610291
 Sym= A
 Ene=     0.446535143
 Spin= Alpha
 Occup=    0.00000
   1    -0.043253718296216
   2       0.2925351049509
   3      0.34957792763337
   4    -0.019415161270626
   5     0.020616495585285
   6    0.0010859351312831
   7    -0.011697297320661
   8     0.031811825584038
   9       0.1374221283112
  10     0.017210759951416
  11     0.062625593713515
  12     -0.39424201983084
  13     -0.14156570043576
  14    -0.046009238425797
  15    -0.0077179485897766
  16    -0.073131518690255
  17      0.45284703217841
  18    -0.077032694312451
  19    -0.0067298329084627
  20    -0.024563059038047
  21    -0.0018661067020404
  22     0.004486759047755
  23     -0.10782138285402
  24     -0.30321039409393
  25     -0.03681765595583
  26      0.10507777200599
  27     -0.64801431015089
  28      0.13544085913806
  29     0.045114395192358
  30     0.010305828812442
  31    0.0099874538943041
  32    -0.062147910154025
  33      0.12109931020233
  34     0.059309217006996
  35     0.027816613876629
  36     0.017129320245623
  37     -0.11375889271427
  38     0.063221307827993
  39     -0.20789599725777
  40    -0.024013241665908
  41    -0.053971123857174
  42       0.3673121640993
  43     -0.30434991328351
  44    -0.093421477722186
  45    -0.032418626704185
  46     0.043228530866817
  47     -0.26886915698903
  48     -0.30225876416695
  49     0.071591088707257
  50    -0.0084765124758015
  51     0.092264447362257
  52     -0.57893628409897
  53      0.11133281595227
  54      0.37901944088485
  55     0.060454231146446
  56     -0.15380050746036
  57      0.95826089768168
  58     0.051088193899742
  59      0.15115751659632
  60     0.024506274545252
  61     0.091336103601124
  62     -0.57090225338631
  63      0.28178215397292
  64      0.15131390025526
  65     0.038409178672361
  66      0.22455217447112
  67    -0.0088594151670955
  68      0.33728724164019
  69    -0.004996527234177
  70    -0.041533490655489
  71     0.012133276890707
  72      0.26782479265133
  73     -0.34364017245502
  74      0.38589074395452
 Sym= A
 Ene=    0.4613808473
 Spin= Alpha
 Occup=    0.00000
   1     0.045081559383267
   2     -0.30504412553092
   3     -0.16061456521726
   4     -0.35700108215266
   5    -0.049319454894083
   6    -0.095706344652928
   7      0.59907959001854
   8      0.32361854960465
   9    -0.033780101134891
  10    0.0082432490320235
  11     0.058365097125244
  12     -0.35587146972573
  13      0.26208771064317
  14        0.177059631995
  15     0.055741972170761
  16    -0.010718309891492
  17     0.045635838232119
  18      0.24620456834827
  19      0.48208477446563
  20     0.020109432835202
  21    -0.019111593316643
  22      0.12227858124102
  23     -0.16613144013312
  24      0.20115580477647
  25     0.039146965545911
  26     0.035016040685758
  27      -0.2232294216075
  28     -0.18760060047527
  29      0.43247888688336
  30     0.033395345766451
  31     0.019018870107536
  32     -0.11949889569954
  33      0.45423386403099
  34       0.1068360491979
  35       0.1101789674466
  36    -0.046701024185027
  37      0.29839353584487
  38     -0.26766365009826
  39     0.025487569347145
  40    -0.011232230101178
  41     0.032632629779582
  42     -0.22116221166182
  43      0.18518733557452
  44      0.18358046403361
  45     0.036748997961481
  46    -0.011639538580998
  47     0.069300341376328
  48     0.093204052016646
  49      -0.2644379611401
  50    -0.031447783401161
  51    0.0047211440254997
  52    -0.022495258375498
  53     0.061745357251529
  54     -0.20646682137209
  55      -0.0254948384944
  56    -0.012750434317395
  57     0.078028797586247
  58     -0.18622833273639
  59     -0.32335103699071
  60    -0.057070649048132
  61     0.031952433673603
  62     -0.19248821958704
  63     -0.14151983735991
  64     -0.12441066377261
  65    -0.026772756361153
  66     0.068606197129937
  67      0.14501049849184
  68      0.50456241763225
  69     0.019499895385846
  70     -0.28879863494909
  71      0.20455708990446
  72       0.1282963020725
  73     -0.36475854220354
  74     0.013198131632506
 Sym= A
 Ene=     0.476586598
 Spin= Alpha
 Occup=    0.00000
   1     0.023171974924431
   2     -0.15758762796057
   3     -0.15553934794672
   4     -0.21271324266277
   5    -0.032267384097823
   6    0.0007073742852653
   7    -0.00037586595190524
   8      0.42799140381914
   9     -0.12954235992745
  10    0.0021150960073141
  11     0.017736385289603
  12     -0.10660048164919
  13      0.20420744400804
  14    -0.054960432191018
  15     0.022262588968961
  16    -0.011074401749337
  17     0.050373137383245
  18      0.35017149402699
  19      0.23495707122737
  20     0.008222232618175
  21     0.029364832433024
  22     -0.18381027839344
  23    -0.0087973369033316
  24       0.1686409229517
  25     0.035414224380888
  26    -0.011023040319186
  27     0.071263651012617
  28     0.020648201087608
  29      0.32098881599156
  30     0.036072851762609
  31     0.016661621854175
  32     -0.10570608649433
  33       0.2040491921134
  34      0.26515543415895
  35     0.094875195068355
  36     0.025437509479503
  37     -0.16558538244999
  38      0.54727515715541
  39     -0.11419522580253
  40     0.018552659015184
  41    -0.032569508933154
  42      0.22180703199621
  43     -0.19262711746901
  44     -0.30407518810314
  45     -0.05540304097327
  46    0.0085770239472376
  47    -0.054350039244084
  48     0.018866670486112
  49      0.44893819352708
  50     0.064902102678244
  51    -0.037735224708023
  52      0.23231080388799
  53    -0.034366036062203
  54      0.22882367267382
  55     0.030093886910268
  56     0.027500475189313
  57      -0.1693348690376
  58       0.4260514382948
  59      0.35249694139043
  60     0.076338488408669
  61    -0.038119271732606
  62      0.22792747779065
  63      0.26849846571459
  64     0.027484267065215
  65     0.020090644278824
  66      0.16863817693885
  67      0.13777137522315
  68      0.22900963789053
  69     -0.14714491767555
  70    -0.064301288237079
  71     -0.34254565402927
  72      -0.2035207573382
  73      0.57859309770203
  74     -0.17555338654393
 Sym= A
 Ene=    0.5380073404
 Spin= Alpha
 Occup=    0.00000
   1    -0.006609222789436
   2     0.049977797500304
   3     -0.31257121866665
   4         0.32265145655
   5     0.022306904434614
   6     0.034902820032371
   7     -0.21957279568816
   8    0.0033883277268832
   9      0.38182323114153
  10     0.047191767177413
  11     0.061866105053662
  12     -0.41351492170002
  13      0.21461801301991
  14     -0.42002372515605
  15    -0.040767916252175
  16     0.031815047146485
  17     -0.21338778147389
  18     -0.12158339908142
  19      0.19410792378936
  20     0.019439716862705
  21    -0.030552607812898
  22      0.20483213377757
  23      0.50895995536327
  24      0.22539643952384
  25      0.05928901277574
  26    -0.062882503282697
  27      0.41692099824909
  28    -0.076345340315537
  29      0.24847082315518
  30     0.026406371363537
  31    -0.0069441947925645
  32      0.04683023182669
  33     0.010997795981386
  34    -0.053524287263839
  35    0.0044158383104639
  36     0.042577362922302
  37     -0.28679916164527
  38      0.29323519651296
  39      0.13381972874536
  40     0.038333050234318
  41     0.012831768295452
  42    -0.088339293372643
  43     0.031561676544382
  44    -0.033435380201274
  45    -0.0025633441234402
  46     0.021986842189749
  47      -0.1451869274576
  48       0.1866764484968
  49     -0.37205706087726
  50    -0.041221142298327
  51    -0.015630214121466
  52      0.10360303533161
  53     -0.30313952188775
  54      0.24372850418784
  55      0.01561813446355
  56    -0.031797209832382
  57      0.21731535145304
  58     -0.15839407307372
  59    -0.051143008623326
  60     -0.01681807088659
  61    -0.021169646105278
  62      0.14412599833077
  63      0.15861948120969
  64      0.44672185575338
  65     0.072213302587386
  66      0.54733078034596
  67       -0.409170699483
  68      0.04124848840054
  69    -0.0048652799059947
  70    -0.030103725193811
  71      0.38499905185151
  72     -0.33965049530519
  73     -0.20586087504493
  74      0.25037925040619
 Sym= A
 Ene=     0.538699379
 Spin= Alpha
 Occup=    0.00000
   1    -0.012297819414643
   2     0.083999537244006
   3     -0.11953863148419
   4     0.071765703357009
   5    0.0013380200507217
   6    -0.034413578754296
   7      0.23557116917206
   8      0.24544076227791
   9      0.27722290616191
  10     0.048583239004356
  11     0.046153405051425
  12     -0.30828396948683
  13      0.28772179546564
  14      0.21704216331471
  15     0.041324672235395
  16     0.039065296461417
  17      -0.2594149112631
  18     -0.14044745422064
  19     0.016826630594794
  20    0.0042365703819503
  21     0.010923498942334
  22    -0.070392459179718
  23    -0.044417048463494
  24      0.30771873597514
  25     0.033662643522389
  26    -0.048119506072239
  27      0.31754127466518
  28      0.14479865104324
  29     -0.17694418929324
  30    -0.012450442481914
  31    -0.017189977622931
  32      0.11609641250264
  33    -0.037502822397356
  34     -0.13140750785933
  35    -0.0046327234701313
  36    -0.020407090574142
  37      0.12384932337821
  38     0.073409682565484
  39      0.50686416842559
  40     0.077513228748883
  41     0.010856653100142
  42    -0.078819299819639
  43     -0.37098163597551
  44      0.37321449274574
  45     0.029685723773995
  46     0.078067053261076
  47     -0.51672697931743
  48    -0.073185661371257
  49      0.14292212699517
  50     0.015805318819307
  51      0.04047747402886
  52     -0.27228984858453
  53      0.47941378380718
  54      0.33839241736503
  55     0.077517753513375
  56    -0.046787529457067
  57      0.31847521586105
  58     -0.26975084734635
  59      0.22544249801747
  60     0.015278363463038
  61    -0.086057549951203
  62      0.57683701571134
  63       0.2512464757964
  64     -0.31517785682807
  65    -0.029454039009885
  66     0.032201966465419
  67      0.15283738445857
  68     -0.29523091691856
  69     0.027348016189761
  70    -0.058315102293881
  71     0.083838637977749
  72      0.38399815718336
  73     -0.15939271489125
  74     -0.54578883414665
 Sym= A
 Ene=    0.5547374133
 Spin= Alpha
 Occup=    0.00000
   1     0.024393302909872
   2     -0.16675709200789
   3     -0.18407961675085
   4      0.15872348273403
   5    0.0087071321596902
   6    -0.0097490135064001
   7     0.056849765215667
   8     0.027658480462196
   9     0.045971827745364
  10    0.0093094795714286
  11     0.054295197772239
  12     -0.35933213338383
  13       -0.376576276003
  14      0.15210116612991
  15    -0.007651203805153
  16    -0.029397718627256
  17       0.2011328741306
  18     -0.42579608383625
  19      0.30867499818048
  20     0.014265578699932
  21    -0.075569226399241
  22      0.51150638230466
  23      -0.1472093197247
  24    -0.063214715978973
  25    -0.014861659022183
  26    -0.0029000281218434
  27    0.0072594958348966
  28     -0.43023899694428
  29     -0.30051233427178
  30    -0.064321996277179
  31     0.003211982254098
  32    -0.021982298421687
  33      0.16709652025185
  34     -0.19996822613171
  35    -0.023837674546839
  36     0.021515418316234
  37     -0.14559162101626
  38      -0.1017607029619
  39     0.070120996128137
  40    0.0033501662599833
  41     0.029729228656036
  42     -0.20742856568306
  43      0.22286827845595
  44     -0.18824412261962
  45    -0.012631298229339
  46    -0.001262315714367
  47    -0.0065160996172641
  48      0.53440076904389
  49      0.39638841174139
  50     0.089148459529763
  51    -0.085950704573953
  52      0.58654344925788
  53      0.23673745769821
  54      0.11518195500596
  55     0.031053792130789
  56    -0.051572812250345
  57      0.35305551438153
  58      0.41524891159846
  59     -0.39918139185767
  60    -0.030822776154141
  61     0.048937477986416
  62     -0.32766526984752
  63      0.56742281483499
  64     -0.12707302108956
  65     0.017129009626703
  66    -0.057516168816244
  67     -0.10046065281424
  68     -0.17385418270817
  69      0.17524789662257
  70     -0.12751614707817
  71     -0.22973485604686
  72    -0.075977691848356
  73     -0.10753331812875
  74    -0.085190800634872
 Sym= A
 Ene=     0.560978448
 Spin= Alpha
 Occup=    0.00000
   1    -0.017310177969707
   2      0.13114886018585
   3      0.28319001024747
   4     -0.19285422020277
   5    -0.0069436275101397
   6    -0.046625555491573
   7      0.31850554163705
   8      0.32489491321629
   9    0.0080976865083868
  10     0.019589023203918
  11    -0.018964380437079
  12       0.1271984231204
  13      0.29850928940426
  14      0.51299159953549
  15     0.080611218160522
  16      0.03207199173176
  17     -0.21292122468137
  18     0.099125381633713
  19     -0.22368746633818
  20    -0.012757398551893
  21       0.0502308814685
  22     -0.34062834169696
  23     -0.35257573169627
  24       0.1746839847427
  25    -0.0026154672207576
  26      0.01049327322871
  27     -0.06232091302072
  28      0.40523908822961
  29     -0.28446227996512
  30     -0.01023183744459
  31    -0.013405305016155
  32     0.090938536770872
  33     -0.10703962680902
  34    -0.029390386308282
  35    -0.0024441842372787
  36     0.037777375876751
  37     -0.26033243492585
  38       0.3163526556331
  39     0.093402648516117
  40     0.033049762714963
  41     0.020440738927842
  42     -0.15473477608639
  43      0.23658337638224
  44     -0.11591749913931
  45    -0.0023895514848717
  46    -0.0015611343871464
  47    0.0021858251433368
  48      0.38324166233163
  49     -0.27111779393613
  50    -0.014480448458851
  51    -0.035835267583746
  52      0.24547529426828
  53     -0.27364640286402
  54      0.23143035154085
  55     0.015712355661869
  56    -0.040300257631741
  57      0.27574698339553
  58    0.0068393142318934
  59     -0.15783829916842
  60     -0.02191206636101
  61    0.0061914686998798
  62    -0.039981681762967
  63       0.2820565464209
  64      0.45241344384953
  65     0.081302395367767
  66     -0.40082901418683
  67      0.44212827963857
  68     -0.25582146964468
  69    -0.025358066129939
  70     0.010568966542949
  71      0.26293490061776
  72     -0.35602695186473
  73     -0.18593269207307
  74      0.32785497784128
 Sym= A
 Ene=    0.6071056961
 Spin= Alpha
 Occup=    0.00000
   1     0.019827472709163
   2     -0.14398700220051
   3     -0.20610693557105
   4      0.13938925925145
   5    0.0056785945956468
   6      0.06327511362315
   7     -0.41220990159762
   8      0.46624664287678
   9     -0.18425768341704
  10    0.0037180646510021
  11     0.020135353109579
  12     -0.14339570776362
  13     -0.44536539654038
  14      0.18414673176926
  15    -0.0031541661452384
  16    -0.024367600666252
  17      0.16608513491409
  18     -0.23689708875092
  19        0.442005631568
  20     0.031549829830512
  21    -0.071886552358767
  22      0.50151164421662
  23     -0.41235144441766
  24     0.023000182119053
  25    -0.017848075464434
  26     0.002422027401494
  27    -0.028670358485651
  28     -0.40977797143633
  29     -0.46554476851038
  30     -0.08421989519284
  31     0.014388455563735
  32    -0.099179575498738
  33      0.22184548664423
  34    -0.086755879923561
  35    -0.0044910507216812
  36    -0.065133958085696
  37      0.42361329265497
  38      0.44125157075072
  39     -0.15886879368528
  40    0.0043741979952929
  41    -0.013232957263786
  42     0.097752066504896
  43      -0.1720442608445
  44      0.12189798698479
  45    0.0066800684966807
  46    0.0012124207826742
  47    0.00022212733496246
  48     -0.30474630371673
  49     -0.37844864495359
  50    -0.072480293628235
  51     0.054696888051914
  52     -0.38447220141669
  53     -0.34038822895315
  54     0.045803213107118
  55    -0.014665935870083
  56      0.01842901283291
  57      -0.1320007117878
  58     -0.13279841591311
  59      0.37135611110384
  60      0.04434676357567
  61    -0.012953873073584
  62     0.095344942206111
  63     -0.34151313244855
  64      0.11848827332592
  65    -0.0044084089892825
  66     -0.17085686700732
  67      0.11606541381979
  68     -0.27811418384548
  69      0.12836624596328
  70     -0.11192651694658
  71      0.23924855473074
  72     -0.11359670886601
  73       0.1621343137463
  74      0.11454279865579
 Sym= A
 Ene=    0.6212363525
 Spin= Alpha
 Occup=    0.00000
   1    -0.053146117324278
   2      0.38485847168257
   3      0.11581051064125
   4      0.15196171978311
   5     0.025260067292512
   6    -0.017227765330461
   7      0.12907753088075
   8      0.22121251588903
   9      0.54597963301743
  10     0.084183401568389
  11     0.075282613833273
  12     -0.52791187513059
  13      0.15718690055746
  14      0.16594641466732
  15     0.025985346630255
  16     0.037525983261258
  17     -0.26264191427676
  18     -0.36086143378089
  19      0.24314869917999
  20     0.017477053494878
  21    0.0074455775456573
  22     -0.05528739571714
  23       0.1000842365691
  24       0.6033457668748
  25     0.081274871634725
  26    -0.035085456631129
  27      0.25712781909755
  28      0.51567630424137
  29     -0.10244781990853
  30     0.018637590672477
  31     -0.01719088413674
  32      0.11912784822632
  33     0.027510536855704
  34     -0.18875950336416
  35    -0.0044827638904495
  36    -0.0083991543217258
  37     0.065129796069881
  38     -0.16192498732182
  39     -0.46214959359667
  40    -0.073923902911076
  41    -0.048023490759668
  42       0.3485069952773
  43     -0.11107469967942
  44     -0.13076620811481
  45    -0.025779963428439
  46    -0.030794972011253
  47      0.22636134396427
  48      -0.4701994495338
  49     0.070601325011363
  50    -0.019080571366378
  51    0.00022573426446904
  52    -0.0039314443402662
  53      -0.1197489811715
  54     -0.57090125530393
  55    -0.088216229856055
  56     0.032628427759901
  57     -0.23651969658678
  58      0.37483645092154
  59     -0.26160639717462
  60    -0.013677586408955
  61     0.067642219433928
  62     -0.47667059659529
  63    -0.054577432056478
  64     -0.10390345376817
  65    -0.018400002238177
  66      0.11572164015374
  67      0.10318332464607
  68     -0.22874647894342
  69     0.064127976842646
  70     -0.10452807748843
  71      -0.1872712924841
  72     0.055811491796207
  73      0.15098664874841
  74      0.12080961172381
 Sym= A
 Ene=     0.702843056
 Spin= Alpha
 Occup=    0.00000
   1    -0.020286072142449
   2      0.14621621924017
   3       0.3050454739746
   4     -0.20386961717572
   5    -0.0077871985082242
   6     0.011140183181734
   7    -0.092335930549343
   8     -0.20810195522698
   9     -0.25470215273935
  10    -0.042571981391044
  11    0.00044440347113137
  12    -0.007055512885533
  13       -0.396823287502
  14      -0.1919540980857
  15    -0.049562715451986
  16     0.014021279263842
  17     -0.10293102064668
  18     -0.30239946979393
  19      0.44787697078758
  20     0.036568450538648
  21    -0.00024777568950417
  22    -0.0018941798584998
  23      0.12898214906195
  24      0.58827973717325
  25     0.083536173341488
  26    -0.0078762160100782
  27     0.075046691578966
  28      0.54676187888018
  29     0.070061303602985
  30     0.041425734269717
  31    0.00099949558511044
  32    -0.0074532421523753
  33      0.11165467335869
  34       -0.097729362927
  35    -0.0027515691448593
  36    -0.0094644104138241
  37     0.081549112108764
  38      -0.2216940438031
  39     -0.34813589786197
  40    -0.063855461114606
  41     0.014520012033023
  42     -0.10495477423798
  43      0.31951560284725
  44     -0.25799858510729
  45    -0.016497200070948
  46    0.0079419121790322
  47    -0.075052090117264
  48       0.5600637479658
  49      0.10349874304143
  50     0.049307686980083
  51    0.0023550343133831
  52    -0.016354038903014
  53      0.16329120155171
  54      0.60980021519902
  55     0.096410075389572
  56     -0.01024851329182
  57     0.074238129184942
  58     -0.35846926754554
  59      0.47064059429095
  60     0.044231965397609
  61    -0.0009922712044998
  62     0.012604198430565
  63     -0.48421361383209
  64     -0.18647205635125
  65    -0.055862290241093
  66     0.049583634546616
  67     0.050288307972887
  68    -0.036263449949798
  69     0.072853566905891
  70    -0.083248203865873
  71     0.015181041584914
  72    -0.024938380297148
  73     0.013621690448675
  74    -0.032040289523533
 Sym= A
 Ene=    0.7291827734
 Spin= Alpha
 Occup=    0.00000
   1     0.035611671864049
   2     -0.25504384762365
   3     -0.15038142845086
   4     -0.25159033597002
   5    -0.041044468897453
   6     -0.04403064969963
   7      0.31338350483455
   8      0.32784441959101
   9     -0.13574874895089
  10    0.0033409232900499
  11     0.049904102117566
  12     -0.35049642671345
  13     -0.31147485620726
  14      0.59769414450671
  15      0.05188800554702
  16    -0.060907220891045
  17      0.45699005760987
  18      -0.5864765793919
  19     -0.42360849766931
  20    -0.071904629105933
  21     0.056997989021299
  22     -0.40295609002792
  23      0.67767994417273
  24     -0.18419131458784
  25     0.014551672732508
  26     -0.04193745615541
  27      0.30173905288596
  28     0.073046236243784
  29      0.49474569340565
  30     0.067046153939216
  31    -0.024675441322747
  32      0.17827447791048
  33     -0.15708879117084
  34     -0.17133923519009
  35    -0.026421655350054
  36    -0.036847425592905
  37      0.26062662779685
  38    -0.083191770774144
  39      0.02275829624191
  40    -0.0022151731922144
  41     0.017797152452675
  42     -0.12893210724966
  43     0.077532811373347
  44      0.12619052610114
  45     0.022603774529521
  46    -0.020446621289865
  47      0.14576981526752
  48    -0.023642936108541
  49     -0.27686354934845
  50     -0.04064937066457
  51     0.034582953854232
  52     -0.24753538543355
  53     -0.37164004352205
  54      0.14990078389098
  55    -0.0018460981719103
  56    -0.035429798577072
  57      0.25669430466354
  58      0.30166968016446
  59       0.2894375439142
  60     0.059543572317757
  61     0.027102011362225
  62     -0.19093771771628
  63      0.12929901100856
  64     -0.32107969524126
  65    -0.037306926451377
  66     -0.32201275968988
  67     -0.32354473391559
  68      0.20357453183855
  69     0.034354911995406
  70     0.012824065128455
  71      0.12443338927836
  72      -0.1816825023021
  73       0.1923917040691
  74     -0.17403243105251
 Sym= A
 Ene=    0.7438109877
 Spin= Alpha
 Occup=    0.00000
   1     0.021466663041055
   2     -0.15307455875754
   3     -0.11125701449712
   4     -0.10633210713284
   5    -0.019863160653032
   6    0.0013835954607131
   7    -0.0051603090518677
   8      0.35350337034367
   9     -0.12062112018602
  10    0.0057437367023091
  11     0.028282709178552
  12     -0.20252133093761
  13     -0.21825043568487
  14      0.34298303073002
  15     0.028026601850688
  16    -0.035694637482236
  17      0.26817685202939
  18     -0.32550253563997
  19     -0.18381935659416
  20    -0.035317108351266
  21     0.024195395910746
  22      -0.1693244743064
  23      0.31799942125768
  24     -0.10303133059951
  25    0.0049738643790483
  26    -0.022311275635323
  27      0.16086094449429
  28    -0.0061275218821831
  29      0.20885405358214
  30     0.025984300547921
  31    -0.011235008923208
  32     0.081776121527067
  33    -0.063751917052658
  34    -0.089213033299058
  35    -0.013073084343463
  36     0.020292499437303
  37     -0.14797876013786
  38      0.45854726648034
  39     -0.19421223333583
  40    0.00051670353299452
  41     -0.03745956224935
  42      0.26975572726332
  43     -0.16436436523602
  44     -0.22240859537963
  45    -0.041770368341209
  46     0.038895088654988
  47     -0.28000614757482
  48     0.022412696301573
  49      0.42689989992092
  50      0.06186893186559
  51    -0.052321870980872
  52       0.3720852721377
  53      0.62649815857609
  54     -0.21654077292651
  55    0.0082100328711329
  56     0.070738131862728
  57     -0.51742063657061
  58     -0.61357878406874
  59     -0.39911683042151
  60    -0.094308863148201
  61    -0.052468724814533
  62      0.37666337886069
  63     -0.39543183091488
  64      0.60639531380312
  65     0.061209352993376
  66     -0.18007880568471
  67     -0.15914088580602
  68     0.075877734752329
  69     0.023299711863422
  70    0.0010845178835092
  71     -0.17000407522253
  72       0.3081139236587
  73     -0.30337038349179
  74      0.32637793603584
 Sym= A
 Ene=    0.7577754755
 Spin= Alpha
 Occup=    0.00000
   1    -0.012368254960958
   2     0.090175583779344
   3     -0.29774872775806
   4       0.3627411512169
   5     0.027179765398518
   6    -0.020177331480063
   7      0.16778828941496
   8      0.30037648415946
   9       0.7109903863724
  10       0.1082715052121
  11     0.032340860912503
  12     -0.23692328256114
  13      0.55679887147229
  14        0.281126235607
  15     0.068776585756365
  16    -6.7324019840256e-05
  17    -2.0002251408513e-05
  18      0.22348861185048
  19     -0.37791886928291
  20    -0.030735415205183
  21    -0.00022856442511479
  22     0.002232782563267
  23     -0.13034748843331
  24     -0.40900956924606
  25    -0.061056315549324
  26    0.00062573611171028
  27    -0.018914774859154
  28     -0.40263346413215
  29     -0.12157257833552
  30    -0.039022039986327
  31    -0.0055078811817555
  32     0.039874456541163
  33     -0.09708076109711
  34     0.047790593194865
  35    0.0034058368700555
  36    -0.017519305219185
  37      0.14450465154337
  38     -0.26642646222372
  39     -0.65751396604669
  40      -0.1078130754715
  41    -0.012705621905039
  42     0.093045673079565
  43      0.26844382677643
  44      -0.3280177753609
  45    -0.030463909720329
  46    -0.0015396504851421
  47    -0.00050957129804732
  48      0.34318345618347
  49     0.092935177615923
  50     0.034553032430222
  51    0.0040440084181506
  52    -0.031016247777541
  53     0.090369145280643
  54      0.36929221818627
  55     0.057757238739504
  56    -0.0013722018014982
  57    0.0061242228666183
  58     -0.18950745795318
  59      0.35585950373453
  60     0.038668504162505
  61     0.028665905713603
  62     -0.20762669151385
  63     -0.49862588035457
  64     -0.25773856195634
  65    -0.067581420852061
  66    -0.0072318886057634
  67    -0.0076329144437333
  68     -0.02897326163933
  69    -0.056649117313085
  70     0.050020651399486
  71    -0.023534318512551
  72    -0.012674156144183
  73     0.062541656013484
  74    -0.013728168271676
