12
XYZ from PySCF
C          -0.00068633       -1.40886184        0.03576630
C          -1.22080375       -0.70365380        0.02168210
C          -1.22012605        0.70508112       -0.01409104
C           0.00070531        1.40884573       -0.03576124
C           1.22071123        0.70369470       -0.02167835
C           1.22004437       -0.70515423        0.01409771
H          -0.00133324       -2.50687642        0.06363187
H          -2.17228353       -1.25212875        0.03856984
H          -2.17105335        1.25465676       -0.02506746
H           0.00119096        2.50685294       -0.06362594
H           2.17224291        1.25206276       -0.03856372
H           2.17103605       -1.25460155        0.02507059
