22
XYZ from PySCF
N           0.53748718       -1.73786783       -0.24916931
C           0.30769603       -0.36575901       -0.08695499
C           1.31154644        0.60557202        0.09773002
C           2.67115382        0.20609873        0.13015897
C           2.95121105       -1.17752991       -0.03077541
C           1.88274330       -2.07182154       -0.21094429
N           3.72633929        1.17321315        0.22112490
C          -1.14584022        0.06271694       -0.11449620
N          -1.38992493        1.42732713        0.06933029
C          -2.73273972        1.76655914        0.03466496
C          -3.79703169        0.86209481       -0.16361859
C          -3.50334045       -0.50347356       -0.34366361
C          -2.15876512       -0.90663509       -0.31831228
H           1.01116697        1.65421967        0.21578886
H           3.98625095       -1.53966290       -0.01255396
H           2.09838289       -3.14657020       -0.33362921
H           3.42392177        2.03631512        0.73307075
H           4.58592094        0.77910440        0.67333314
H          -2.94622278        2.83907942        0.17752185
H          -4.83287412        1.22487955       -0.17585182
H          -4.30717928       -1.23569644       -0.50037708
H          -1.84850325       -1.95189184       -0.45047330
