[Molden Format]
made by pyscf v[2.14.0]
[Atoms] (AU)
C   1   6    -0.00129697573107    -2.66236302495080     0.06758851148903
C   2   6    -2.30698473934199    -1.32971296850948     0.04097323080543
C   3   6    -2.30570407194738     1.33241021240159    -0.02662820641029
C   4   6     0.00133284273292     2.66233258146294    -0.06757894947484
C   5   6     2.30680990188095     1.32979025830797    -0.04096614433247
C   6   6     2.30554971911752    -1.33254837027856     0.02664081088354
H   7   1    -0.00251945845832    -4.73730986193014     0.12024680709393
H   8   1    -4.10502093660341    -2.36618041019400     0.07288643426829
H   9   1    -4.10269623331950     2.37095765673416    -0.04737063403849
H   10   1     0.00225058822531     4.73726549116073    -0.12023560101801
H   11   1     4.10494417592823     2.36605570716704    -0.07287486914441
H   12   1     4.10266354105754    -2.37085332495482     0.04737654888126
[GTO]
1 0
 s    3 1.00
             71.616837    0.15432897000916
             13.045096    0.53532814003178
             3.5305122     0.4446345400264
 s    3 1.00
             2.9412494  -0.099967230075964
             0.6834831    0.39951283030359
             0.2222899    0.70011547053201
 p    3 1.00
             2.9412494    0.15591627210511
             0.6834831    0.60768372820466
             0.2222899    0.39195739529202

2 0
 s    3 1.00
             71.616837    0.15432897000916
             13.045096    0.53532814003178
             3.5305122     0.4446345400264
 s    3 1.00
             2.9412494  -0.099967230075964
             0.6834831    0.39951283030359
             0.2222899    0.70011547053201
 p    3 1.00
             2.9412494    0.15591627210511
             0.6834831    0.60768372820466
             0.2222899    0.39195739529202

3 0
 s    3 1.00
             71.616837    0.15432897000916
             13.045096    0.53532814003178
             3.5305122     0.4446345400264
 s    3 1.00
             2.9412494  -0.099967230075964
             0.6834831    0.39951283030359
             0.2222899    0.70011547053201
 p    3 1.00
             2.9412494    0.15591627210511
             0.6834831    0.60768372820466
             0.2222899    0.39195739529202

4 0
 s    3 1.00
             71.616837    0.15432897000916
             13.045096    0.53532814003178
             3.5305122     0.4446345400264
 s    3 1.00
             2.9412494  -0.099967230075964
             0.6834831    0.39951283030359
             0.2222899    0.70011547053201
 p    3 1.00
             2.9412494    0.15591627210511
             0.6834831    0.60768372820466
             0.2222899    0.39195739529202

5 0
 s    3 1.00
             71.616837    0.15432897000916
             13.045096    0.53532814003178
             3.5305122     0.4446345400264
 s    3 1.00
             2.9412494  -0.099967230075964
             0.6834831    0.39951283030359
             0.2222899    0.70011547053201
 p    3 1.00
             2.9412494    0.15591627210511
             0.6834831    0.60768372820466
             0.2222899    0.39195739529202

6 0
 s    3 1.00
             71.616837    0.15432897000916
             13.045096    0.53532814003178
             3.5305122     0.4446345400264
 s    3 1.00
             2.9412494  -0.099967230075964
             0.6834831    0.39951283030359
             0.2222899    0.70011547053201
 p    3 1.00
             2.9412494    0.15591627210511
             0.6834831    0.60768372820466
             0.2222899    0.39195739529202

7 0
 s    3 1.00
            3.42525091    0.15432897070298
            0.62391373    0.53532814243847
             0.1688554    0.44463454202535

8 0
 s    3 1.00
            3.42525091    0.15432897070298
            0.62391373    0.53532814243847
             0.1688554    0.44463454202535

9 0
 s    3 1.00
            3.42525091    0.15432897070298
            0.62391373    0.53532814243847
             0.1688554    0.44463454202535

10 0
 s    3 1.00
            3.42525091    0.15432897070298
            0.62391373    0.53532814243847
             0.1688554    0.44463454202535

11 0
 s    3 1.00
            3.42525091    0.15432897070298
            0.62391373    0.53532814243847
             0.1688554    0.44463454202535

12 0
 s    3 1.00
            3.42525091    0.15432897070298
            0.62391373    0.53532814243847
             0.1688554    0.44463454202535

[5d]
[7f]
[9g]

[MO]
 Sym= A
 Ene=    -10.00629024
 Spin= Alpha
 Occup=    2.00000
   1      0.39731392115599
   2     0.025529454943674
   3    1.2984048765033e-05
   4    0.0033914116178141
   5    -8.6098449038953e-05
   6     -0.40119799336651
   7    -0.025685260252856
   8    -0.0029163926674936
   9    -0.0017319588124602
  10    5.3150865055847e-05
  11      0.40530013914694
  12     0.025917584386904
  13    0.0029720385619629
  14    -0.0016813661665821
  15    3.3475410019176e-05
  16      -0.4069796400552
  17    -0.026048146000127
  18    -1.9113096579419e-05
  19    0.0034350156142531
  20    -8.7103670784415e-05
  21      0.40903926980762
  22     0.026100288120845
  23    -0.0029781179268862
  24    -0.0016913835669778
  25    5.2315315652796e-05
  26     -0.40312002763256
  27    -0.025804597485355
  28    0.0029174744767291
  29    -0.0017588991913217
  30    3.561358335982e-05
  31    -0.0037863801335373
  32    0.0038208922307073
  33    -0.0038590457583781
  34    0.0038754456168809
  35    -0.0038931327258269
  36    0.0038390260966939
 Sym= A
 Ene=    -10.00592457
 Spin= Alpha
 Occup=    2.00000
   1    -0.085519165071621
   2    -0.0045791961268748
   3     0.005328941656375
   4    -0.00038638790956307
   5    -6.8366817109839e-06
   6       0.5315054227856
   7     0.028381210473434
   8    0.0010370617200123
   9    0.0028997176328789
  10    -7.692374835707e-05
  11     -0.45047462194496
  12    -0.024018312919242
  13    -3.752929999568e-05
  14    0.0038877828465479
  15    -9.8635868648019e-05
  16    -0.081166771918083
  17    -0.0043331591767303
  18    -0.0053692069528229
  19    0.00036055306927329
  20    7.618235471606e-06
  21      0.53246868700581
  22     0.028318111977129
  23    -0.0010130696323151
  24    -0.002870726577798
  25    7.6112952189578e-05
  26     -0.44395270005907
  27    -0.023693421255988
  28    4.3462057480619e-06
  29    -0.0038999959202217
  30    9.9048887629606e-05
  31    0.00078782683089857
  32    -0.0048956345545321
  33    0.0041479494000096
  34    0.00074719283480138
  35    -0.0049016092165249
  36     0.004088351533009
 Sym= A
 Ene=    -10.00592006
 Spin= Alpha
 Occup=    2.00000
   1      0.56565342425883
   2     0.030254401696515
   3    0.00079674289213796
   4     0.002515924067119
   5    -6.6330296140646e-05
   6     -0.21513562636259
   7     -0.01146096320129
   8    -0.0033206235725572
   9    0.0038710835387016
  10    -8.7870848622874e-05
  11     -0.35194669800772
  12    -0.018720893069202
  13    -0.0034497306275175
  14     -0.00291376679113
  15    8.4694890675255e-05
  16      0.56297274961801
  17     0.029971740370649
  18    -0.00079231263417641
  19    -0.0024546076074046
  20    6.4759573265843e-05
  21     -0.20700406927505
  22      -0.0109901043509
  23    0.0032920236727769
  24    -0.0039252690557432
  25    8.9336531594581e-05
  26     -0.36061231057202
  27    -0.019213847265346
  28    0.0034800473419097
  29    0.0028636779218406
  30    -8.3517146561503e-05
  31    -0.0052106919819925
  32    0.0019814959516992
  33    0.0032401074420643
  34    -0.0051823119475164
  35    0.0019053361514255
  36    0.0033210042545245
 Sym= A
 Ene=    -10.00526691
 Spin= Alpha
 Occup=    2.00000
   1     0.083223952646997
   2    0.0029277440499187
   3    0.0052629722995437
   4    -0.00013545973277193
   5    -1.2996629854291e-05
   6      0.53254992056023
   7     0.018616337968557
   8    0.00019630084421889
   9    -0.0021220825724893
  10    5.3219224387441e-05
  11       0.4456490413438
  12     0.015544176500241
  13    0.0010009770419981
  14    0.0032407517938081
  15    -8.5365280740608e-05
  16    -0.086131184649086
  17    -0.0030134979433367
  18    0.0052210378225214
  19    -0.00014641895102536
  20    -1.2587613440211e-05
  21     -0.53100200132315
  22    -0.018467339689853
  23    0.00017900694389165
  24    -0.0021533318690288
  25    5.4066978020155e-05
  26     -0.45175602978973
  27    -0.015803751977342
  28    0.00099168793469525
  29    0.0032187879786125
  30    -8.4778298104961e-05
  31    -0.00072899755081729
  32    -0.0046647700412776
  33    -0.0039026766366273
  34    0.00075518316769104
  35    0.0046501188378899
  36    0.0039585308071868
 Sym= A
 Ene=    -10.00526234
 Spin= Alpha
 Occup=    2.00000
   1      -0.5665066388305
   2    -0.019857584184576
   3    0.00077476923483705
   4    0.00092701126279266
   5    -2.5952095610842e-05
   6     -0.20600835946477
   7    -0.0071699122214689
   8    0.0027784968710992
   9    -0.0041075157212013
  10    9.5609922452937e-05
  11      0.35864599996044
  12      0.01248662822136
  13    -0.002606838414066
  14    -0.003271411517843
  15    9.121073442808e-05
  16      0.56788563474443
  17     0.019795134873195
  18    0.00078485849253821
  19    0.00096914524175147
  20    -2.7052919899373e-05
  21      0.21204333857269
  22     0.007353546861227
  23    0.0027797946803334
  24     -0.00406643583899
  25    9.4563090295426e-05
  26     -0.35092944735648
  27    -0.012210118058565
  28    -0.0026068616574029
  29    -0.0033001292016156
  30    9.193961604988e-05
  31    0.0049631122445878
  32    0.0018027827528343
  33    -0.003141850423171
  34    -0.0049748841939797
  35    -0.0018573046994024
  36    0.0030717528308672
 Sym= A
 Ene=    -10.00478005
 Spin= Alpha
 Occup=    2.00000
   1      0.41026881785889
   2     0.010855618624912
   3    6.138752443321e-06
   4    -0.0020903553976797
   5    5.3037303335355e-05
   6       0.4068441171128
   7     0.010688956735559
   8    -0.0018375768129846
   9    -0.0010183355125728
  10    3.1571338287288e-05
  11      0.40375742790781
  12     0.010593212098664
  13    -0.0018003517086536
  14    0.0010646871058256
  15    -2.1390047262733e-05
  16      0.40279111866334
  17     0.010597040372953
  18    1.6769995438981e-05
  19     0.002076874794804
  20    -5.2766352312953e-05
  21       0.4008739602394
  22     0.010478273764631
  23    0.0018046781536491
  24    0.0010568254537858
  25    -3.244641965639e-05
  26      0.40550725821085
  27     0.010656703611777
  28    0.0018380333388864
  29    -0.0010038208981004
  30    1.9726997832287e-05
  31    -0.0036966301284892
  32    -0.0036655685054438
  33    -0.0036387784359304
  34    -0.0036312215355802
  35    -0.003613263947199
  36    -0.0036542133283635
 Sym= A
 Ene=   -0.7995942641
 Spin= Alpha
 Occup=    2.00000
   1     -0.10539615228018
   2      0.26664514727101
   3    4.4613725804012e-05
   4     0.061800441986811
   5    -0.0015679978547652
   6     -0.10540153065494
   7      0.26665709714976
   8     0.053537637506357
   9     0.030881176184261
  10    -0.00095174239520264
  11     -0.10540482746218
  12      0.26666579497477
  13     0.053513618959303
  14    -0.030939773844987
  15    0.00061895127769044
  16     -0.10540439819231
  17      0.26666651625711
  18    -1.794925593389e-05
  19    -0.061803045815689
  20    0.0015679664420621
  21     -0.10540915098497
  22      0.26667648532074
  23    -0.053553439833758
  24    -0.030857242146404
  25    0.00095119405983357
  26     -0.10540398972546
  27      0.26666330326801
  28    -0.053521742627998
  29     0.030925243213139
  30    -0.00061855421019326
  31      0.04817324597124
  32     0.048175567722745
  33     0.048177694849012
  34     0.048178421400318
  35     0.048180352231647
  36     0.048177948004804
 Sym= A
 Ene=   -0.6964094447
 Spin= Alpha
 Occup=    2.00000
   1     -0.10165209252773
   2      0.27447497580682
   3      0.09304526772971
   4     0.013762279816045
   5    -0.00063935505845951
   6     0.041811671072152
   7     -0.11289610598998
   8     0.056572367590185
   9     -0.10944123375211
  10    0.0026022404999819
  11       0.1434360314304
  12     -0.38730175720799
  13    -0.031892648452943
  14    -0.016234433761714
  15    0.00051073481899633
  16      0.10163187656427
  17     -0.27442547997659
  18     0.093008446376568
  19     0.013750744390244
  20    -0.00063893897460134
  21    -0.041787182635898
  22      0.11283592736643
  23     0.056575474245779
  24     -0.10942744354174
  25    0.0026018772466512
  26     -0.14344632253738
  27      0.38732731466974
  28     -0.03192044756949
  29    -0.016275845194764
  30    0.00051187653176095
  31       0.0752367428291
  32    -0.030946734100031
  33     -0.10617062646135
  34    -0.075230142998623
  35     0.030935527271225
  36      0.10617754659638
 Sym= A
 Ene=   -0.6964058956
 Spin= Alpha
 Occup=    2.00000
   1      0.10693984339695
   2     -0.28875916681756
   3     0.088374871722234
   4    -0.014580296389892
   5    9.3517086232101e-05
   6      0.14149658257062
   7     -0.38206625891771
   8    -0.034792121611229
   9     0.021862025230951
  10    -0.00044533954660313
  11     0.034569763265505
  12    -0.093342645740463
  13     0.058375999958497
  14        0.110345122884
  15    -0.0029841328962957
  16      -0.1069566072436
  17      0.28880041148984
  18     0.088423135772329
  19    -0.014582411643583
  20    9.3408089905547e-05
  21      -0.1415013574086
  22      0.38207772673416
  23    -0.034819820284557
  24     0.021918803536145
  25    -0.00044668418994956
  26    -0.034531047198413
  27     0.093243756126281
  28     0.058380444088486
  29      0.11032643572434
  30    -0.0029836794262435
  31    -0.079158319239909
  32      -0.1047357539389
  33    -0.025586530983346
  34     0.079167987564427
  35      0.10474088922321
  36     0.025565924192261
 Sym= A
 Ene=   -0.5565904417
 Spin= Alpha
 Occup=    2.00000
   1     -0.11564279430946
   2      0.34144171291259
   3    -0.024876424657693
   4    -0.087678133374149
   5    0.0023032589174092
   6      0.04683543683567
   7     -0.13827663570062
   8      0.13497587649094
   9     -0.16290765671913
  10    0.0037144924830068
  11     0.068782977677727
  12     -0.20307925297748
  13      0.13712909246552
  14      0.13293663007703
  15    -0.0038035538196471
  16     -0.11563693130323
  17      0.34142346866769
  18     0.024848498398153
  19     0.087680138638503
  20    -0.0023032124564092
  21     0.046854467930507
  22     -0.13834547212254
  23      -0.1350101036177
  24      0.16290079373895
  25    -0.0037141897659087
  26     0.068792960011439
  27     -0.20311800035708
  28     -0.13716386400534
  29     -0.13294461174882
  30    0.0038038890740139
  31      0.17354984683196
  32    -0.070279053777859
  33     -0.10321756458249
  34      0.17354424165289
  35    -0.070333824671699
  36     -0.10325866826602
 Sym= A
 Ene=   -0.5565790158
 Spin= Alpha
 Occup=    2.00000
   1     0.012658841705253
   2    -0.037369373034219
   3      -0.2265174014483
   4    0.0097248315367461
   5    0.0004604990785332
   6     -0.10648261055257
   7      0.31440266582242
   8     -0.02413598288558
   9     -0.11982666452543
  10    0.0031160626938526
  11     0.093814403324332
  12     -0.27700009675156
  13    -0.0058128743712612
  14      -0.1522606452848
  15    0.0038824447520484
  16     0.012680396068295
  17    -0.037447202199308
  18      0.22652770520459
  19    -0.0097629844432148
  20    -0.0004595713394649
  21     -0.10647306284603
  22      0.31436922667272
  23      0.02413881634458
  24      0.11980783755486
  25    -0.0031155966359867
  26     0.093807593847836
  27     -0.27697165805074
  28    0.0058092032151394
  29      0.15222065610452
  30    -0.0038814290171556
  31    -0.018982526362167
  32      0.15981335448589
  33      -0.1408083377582
  34    -0.019047935529296
  35      0.15979358453073
  36     -0.14078157868149
 Sym= A
 Ene=   -0.4784812604
 Spin= Alpha
 Occup=    2.00000
   1    -0.0095154702459878
   2      0.03983515303116
   3    -0.00014834995217882
   4     -0.23956327443631
   5    0.0060795660989321
   6    -0.0095129997483273
   7     0.039825666510645
   8     -0.20759111619896
   9     -0.11967229056284
  10    0.0036853997458301
  11    -0.0095094123495393
  12     0.039815345986172
  13     -0.20748087991007
  14       0.1199047484789
  15    -0.0023953929980149
  16    -0.0095149399309713
  17     0.039833918978222
  18    0.00010989533844775
  19      0.23958470308519
  20    -0.0060799661820587
  21    -0.0095089373210263
  22     0.039813250580793
  23      0.20762246263167
  24      0.11964885242734
  25    -0.0036849285069274
  26    -0.0095115086192183
  27     0.039822072377226
  28      0.20749988027258
  29     -0.11988058699566
  30    0.0023947084871102
  31      0.16959519850659
  32      0.16959408568823
  33       0.1695931960339
  34      0.16961015105105
  35      0.16960009352433
  36      0.16959938884442
 Sym= A
 Ene=   -0.4236366325
 Spin= Alpha
 Occup=    2.00000
   1     0.067783438010605
   2     -0.22972120981362
   3    8.6958644355277e-05
   4      0.16110482252265
   5    -0.004088034938081
   6     -0.06778996151673
   7       0.2297413664416
   8     -0.13951588410363
   9    -0.080433397742068
  10    0.0024775374545193
  11     0.067786715106289
  12     -0.22973260521245
  13      0.13946946715738
  14    -0.080637014740362
  15     0.001611676230666
  16    -0.067781432463167
  17      0.22971556409746
  18    7.0149614699608e-05
  19      0.16110403870419
  20    -0.0040879102818751
  21     0.067786267164285
  22     -0.22972972616172
  23     -0.13953219657189
  24    -0.080422114049822
  25    0.0024773456931875
  26    -0.067784531629354
  27      0.22972387292928
  28      0.13948098170245
  29    -0.080599386817066
  30    0.0016106685512523
  31     -0.22764559139851
  32      0.22757236734836
  33     -0.22761080403624
  34      0.22764462977639
  35     -0.22757448280399
  36      0.22760186240154
 Sym= A
 Ene=   -0.3906339905
 Spin= Alpha
 Occup=    2.00000
   1    2.0670018222309e-07
   2    -1.0757827567495e-05
   3       0.3320805854514
   4    -0.0002653782452506
   5    -0.0010302745465328
   6    -8.5461174278283e-07
   7    -1.2947186549618e-05
   8      -0.1658767218529
   9      0.28764825135458
  10    -0.0067843411149513
  11    -7.9978819201498e-06
  12    1.0728941348136e-05
  13     -0.16611738915296
  14      -0.2874616875753
  15    0.0078163833016032
  16    -4.6496150743333e-06
  17    2.3623060950168e-06
  18      0.33208587646645
  19    -0.00023622683757942
  20    -0.0010310461464547
  21    3.0230323982567e-09
  22    -7.1777293196161e-06
  23     -0.16585416997958
  24      0.28767737237533
  25    -0.0067851131876966
  26    8.9123346303943e-07
  27    -7.7174350697986e-06
  28     -0.16607306705315
  29     -0.28749705422589
  30    0.0078171943591608
  31    3.0773758864272e-05
  32    -4.8500199931761e-05
  33    -7.2654700013402e-05
  34    -5.1709723586522e-05
  35    3.5236072249834e-05
  36    8.3978271073423e-05
 Sym= A
 Ene=   -0.3757554067
 Spin= Alpha
 Occup=    2.00000
   1    -0.027329771562824
   2     0.086293735544328
   3     0.028040868426559
   4       0.3562694124958
   5    -0.0091234169443606
   6    -0.0065439404846078
   7     0.020668549896555
   8      0.12074465120408
   9    -0.038495414743956
  10    0.00060561502705988
  11     0.020771759770399
  12    -0.065589668440109
  13     -0.26764629867256
  14     0.078382968319716
  15    -0.0011489998617104
  16      0.02733238261385
  17    -0.086308151211007
  18     0.027932137533576
  19      0.35623837441619
  20    -0.0091222167561988
  21    0.0065378957949238
  22    -0.020629661806163
  23      0.12087408849004
  24    -0.038472974348581
  25    0.00060463771779622
  26    -0.020768220129531
  27     0.065564235404685
  28     -0.26777965416852
  29     0.078385820966468
  30    -0.0011486475716582
  31     -0.26773162621409
  32    -0.064132106410869
  33      0.20355317656753
  34      0.26770195180717
  35     0.064253066083836
  36     -0.20366279258954
 Sym= A
 Ene=    -0.375739039
 Spin= Alpha
 Occup=    2.00000
   1    -0.0082252172584888
   2     0.025985273547674
   3    -0.092247097517015
   4      0.10708865524247
   5    -0.0024274909540224
   6    -0.027773149200977
   7     0.087692623871609
   8      0.30278741291007
   9      0.20002130878762
  10    -0.0060216887237008
  11    -0.019568511895956
  12     0.061787035856169
  13      0.18579546617805
  14     -0.18832597821722
  15    0.0042033512511948
  16     0.008220646920312
  17    -0.025952170713606
  18    -0.092283321661288
  19      0.10720801867108
  20    -0.0024303898999023
  21      0.02777531878643
  22    -0.087704744376601
  23      0.30280680579035
  24      0.19991620168074
  25    -0.006019151926646
  26     0.019571613637706
  27    -0.061811582868538
  28      0.18573274051493
  29     -0.18820988412011
  30    0.0042005660724994
  31    -0.080409204908185
  32     -0.27216518976105
  33     -0.19165516459264
  34     0.080523312134938
  35      0.27213138748056
  36      0.19155032075916
 Sym= A
 Ene=   -0.3097208239
 Spin= Alpha
 Occup=    2.00000
   1    8.4844945897538e-07
   2    -2.5861593831284e-06
   3    0.0010487585363519
   4    0.0085143037995859
   5      0.33581089239562
   6    -1.0585975980964e-07
   7    7.0170851264678e-07
   8    0.0010450925015728
   9    0.0085255739128178
  10      0.33582423036779
  11    1.5673259742073e-07
  12    -8.2723212134913e-07
  13    0.0010514389267182
  14    0.0085261593509103
  15      0.33583412428176
  16    -8.4032803317669e-07
  17    2.5759672999551e-06
  18    0.0010489903042584
  19    0.0085152183251214
  20      0.33583443620956
  21    9.8125504176074e-08
  22    -6.8786797437771e-07
  23     0.001045120511273
  24    0.0085257005476844
  25      0.33584559185398
  26    -1.5952579061567e-07
  27    8.3400589168901e-07
  28    0.0010516297567289
  29    0.0085265450383111
  30      0.33583122459574
  31    6.5476246698732e-06
  32    1.880454810366e-06
  33    -1.3811839595671e-06
  34    -6.1581147597726e-06
  35    -2.1863686699921e-06
  36    1.2990552248142e-06
 Sym= A
 Ene=   -0.2969108045
 Spin= Alpha
 Occup=    2.00000
   1    -0.007607277911095
   2     0.015377070873743
   3    -0.069233844612133
   4      0.26975803059463
   5    -0.006622972378061
   6    0.0023998806035961
   7    -0.0048184769981589
   8     0.085300318933242
   9     -0.31887058062258
  10    0.0078314115712265
  11     0.005188150030167
  12    -0.010463131438928
  13    -0.034595646941273
  14      0.30815008919837
  15    -0.0077181181255288
  16    -0.0076023748918915
  17     0.015354252489151
  18     0.069189931418162
  19     -0.26969813665853
  20    0.0066219443236233
  21    0.0024207472003086
  22    -0.0049179325234472
  23    -0.085151666114591
  24      0.31894294235525
  25    -0.0078332758546132
  26    0.0051994508675803
  27    -0.010522447323611
  28     0.034692714780611
  29     -0.30821200032657
  30    0.0077198309348699
  31     -0.29302004103373
  32     0.092833851581283
  33      0.20007899817777
  34     -0.29297625619571
  35     0.092935183393704
  36      0.20015020928824
 Sym= A
 Ene=   -0.2968903704
 Spin= Alpha
 Occup=    2.00000
   1    -0.001598080483322
   2    0.0032022067087778
   3      0.32825367520843
   4     0.056698850219747
   5    -0.0024626505835601
   6    0.0073939259645535
   7    -0.014949989368195
   8     -0.27909805716467
   9    -0.040771765879644
  10    0.0019082930174088
  11    -0.0057899499646708
  12     0.011717238218492
  13       0.2898297181452
  14     0.091369882447866
  15    -0.0032238810994432
  16    -0.0016167745461871
  17    0.0032937847388965
  18     -0.32825353821709
  19    -0.056875010770396
  20    0.0024673633363654
  21    0.0073878808775878
  22    -0.014920715256523
  23      0.27902695131618
  24     0.040774721071909
  25    -0.0019079708108042
  26    -0.0057778501122817
  27     0.011657880590698
  28     -0.28971942070808
  29    -0.091415221861117
  30    0.0032249811044538
  31    -0.061856164302927
  32      0.28472766784586
  33     -0.22283366281315
  34    -0.061966307813932
  35      0.28468670730521
  36     -0.22275740143284
 Sym= A
 Ene=   -0.1923023904
 Spin= Alpha
 Occup=    2.00000
   1    -1.9436243174156e-07
   2    6.5618685093487e-07
   3    -0.00051520802244743
   4    -0.0041838095856984
   5     -0.16492026650717
   6    -9.7273360276286e-07
   7    3.9737405700743e-06
   8    0.0011124341687105
   9    0.0090337065228096
  10      0.35589176900073
  11    1.2800592064646e-06
  12    -5.2872495859388e-06
  13    0.0016252200204358
  14     0.013221626838999
  15      0.52073239047802
  16    -1.9850636726524e-07
  17    6.7343996792303e-07
  18    0.0005149088364626
  19    0.0041811678128244
  20      0.16481775837416
  21    -9.7976450022716e-07
  22    4.002409852175e-06
  23    -0.0011122732872825
  24    -0.0090316513951449
  25     -0.35581077137804
  26    1.2773618304605e-06
  27    -5.2767637142043e-06
  28    -0.001625212350621
  29    -0.013220966402552
  30     -0.52070473321989
  31    -1.6736658400713e-06
  32    -4.9331486413447e-07
  33    2.2826062352939e-06
  34    -1.681776022565e-06
  35    -5.0622173912532e-07
  36    2.2753664816958e-06
 Sym= A
 Ene=   -0.1922985559
 Spin= Alpha
 Occup=    2.00000
   1    -6.2858475117587e-07
   2    2.1391679593931e-06
   3    -0.0015804913142733
   4    -0.012838690474687
   5     -0.50607599362361
   6    9.4065297091135e-07
   7    -4.0330389746494e-06
   8    -0.0012353931405741
   9     -0.01005194824981
  10     -0.39579528546445
  11    1.5653383934315e-07
  12    -8.173398098536e-07
  13    0.00034495041862613
  14    0.0028013296877429
  15      0.11019473566964
  16    -6.3169573922443e-07
  17    2.1516254622399e-06
  18    0.0015805843344729
  19     0.012839203677229
  20      0.50610050981016
  21    9.376529241749e-07
  22    -4.0192185910488e-06
  23      0.00123566356026
  24     0.010053495160626
  25       0.3958559697608
  26    1.674462619126e-07
  27    -8.6421086266338e-07
  28    -0.00034537661893956
  29    -0.0028048173266343
  30     -0.11033148788002
  31    -4.6232776719887e-06
  32    2.9040444029383e-06
  33    2.236295994124e-06
  34    -4.6598959809889e-06
  35    2.9340221439717e-06
  36    2.2219313195497e-06
 Sym= A
 Ene=   0.08911890521
 Spin= Alpha
 Occup=    0.00000
   1    -3.1942606361313e-08
   2    -1.6129963794883e-07
   3    0.0020427034381137
   4     0.016596231743779
   5      0.65403103357256
   6    1.0692094607405e-06
   7    -5.4870339184793e-06
   8    -0.00091002967379376
   9     -0.00741231855129
  10     -0.29181540180385
  11    -1.1578523850472e-06
  12    5.9691633274316e-06
  13    -0.001131529598492
  14    -0.0091959642585368
  15     -0.36207743649507
  16    2.4507207586036e-08
  17    1.9998360942215e-07
  18    0.0020427086189605
  19     0.016595938802739
  20      0.65402500194753
  21    -1.0607307698533e-06
  22    5.4462140863058e-06
  23    -0.00091048834674577
  24    -0.0074156968952017
  25     -0.29194794695727
  26    1.1719339201065e-06
  27    -6.0374281185317e-06
  28    -0.0011318760429302
  29    -0.0091985589737981
  30      -0.3621785488346
  31    -2.6870892170833e-06
  32    7.6881710815253e-07
  33    -7.392936858355e-07
  34    2.707819487535e-06
  35    -7.076967099433e-07
  36    8.1395697388422e-07
 Sym= A
 Ene=   0.08912734676
 Spin= Alpha
 Occup=    0.00000
   1    3.4649206503306e-08
   2    -1.4608984090483e-07
   3    -0.00012258585324746
   4    -0.0010275237670133
   5    -0.040488306379711
   6    -1.2164492923338e-06
   7    6.6929180711794e-06
   8     0.001832297447362
   9     0.014892613007188
  10      0.58671303347383
  11    -9.4734491989975e-07
  12    5.3257897706149e-06
  13    -0.0017049004969901
  14    -0.013863016694641
  15     -0.54616255662982
  16    -3.8310575095454e-08
  17    1.6370471163875e-07
  18    -0.00012301567381373
  19    -0.0010310795390507
  20    -0.040628631512714
  21    1.2228956616006e-06
  22    -6.7246450872725e-06
  23    0.0018322285270086
  24     0.014890988059688
  25      0.58664887777517
  26    9.3922954561903e-07
  27    -5.2866505351523e-06
  28    -0.0017047619203121
  29    -0.013861260442875
  30     -0.54609179982639
  31    8.661897137058e-08
  32    -2.809597543496e-06
  33    -2.3223721609053e-06
  34    -1.0989605245348e-07
  35    2.8138757972272e-06
  36    2.2862471707153e-06
 Sym= A
 Ene=    0.2500768449
 Spin= Alpha
 Occup=    0.00000
   1    8.9658136585761e-07
   2    -4.5949179477989e-06
   3    -0.0016184304867067
   4    -0.013153170821709
   5     -0.51830919849593
   6    -9.1891796157326e-07
   7    5.7543474430752e-06
   8    0.0016177086237623
   9     0.013154899820746
  10       0.5183088152734
  11    -7.6567992265111e-07
  12    4.8876875837638e-06
  13    -0.0016188079774799
  14    -0.013155114267271
  15     -0.51830592233225
  16    8.9145087464159e-07
  17    -4.5642560378571e-06
  18    0.0016183863935488
  19     0.013152782032642
  20      0.51830092949124
  21    -9.1512762662083e-07
  22    5.7352851346262e-06
  23    -0.0016177953536578
  24    -0.013154899547042
  25     -0.51830419456071
  26    -7.6996415897676e-07
  27    4.9105195161697e-06
  28    0.0016188367140254
  29     0.013155145838505
  30      0.51831068828702
  31    3.3983881526253e-06
  32    -3.3834404986854e-06
  33    -2.7044500106667e-06
  34    3.5121465959689e-06
  35    -3.2754298998876e-06
  36    -2.7517832497611e-06
 Sym= A
 Ene=    0.3394504201
 Spin= Alpha
 Occup=    0.00000
   1     0.053363238227241
   2     -0.32786858025429
   3    0.00020439862442205
   4      0.31007518734735
   5    -0.0078698260239041
   6     0.053339666372653
   7     -0.32772323227358
   8      0.26877240513529
   9      0.15492115563144
  10    -0.0047690908688674
  11     0.053352850926967
  12     -0.32780465225565
  13      0.26860441267122
  14     -0.15519041907385
  15    0.0030983345300697
  16     0.053363881434332
  17     -0.32787515086935
  18    -0.00016158771587329
  19     -0.31007222536507
  20    0.0078694932972728
  21     0.053336238604522
  22     -0.32770429126162
  23     -0.26878891664478
  24     -0.15486499414255
  25    0.0047678218807189
  26     0.053349069371343
  27     -0.32778328669928
  28     -0.26860959269403
  29      0.15512868766793
  30    -0.0030967109328975
  31      0.50772071572704
  32      0.50772597620287
  33      0.50773684783141
  34      0.50772220292265
  35      0.50770613311679
  36      0.50770542167489
 Sym= A
 Ene=    0.3937242996
 Spin= Alpha
 Occup=    0.00000
   1    -0.0061287676568664
   2      0.03907655076675
   3     -0.30858356562789
   4     -0.10623611901871
   5    0.0036591867383885
   6    -0.029274464995498
   7      0.18691956603021
   8     -0.50019831768665
   9     -0.17119595929644
  10    0.0059062117090281
  11    -0.023247097692095
  12      0.14844128638666
  13     -0.46078333640579
  14     0.026681390885986
  15    0.00076349977946973
  16    0.0059596989077763
  17    -0.038085993218916
  18     -0.30869729305734
  19     -0.10662624449697
  20    0.0036693757181036
  21     0.029326565760233
  22     -0.18722654798493
  23     -0.49989395207978
  24     -0.17152491564085
  25    0.0059137639215732
  26     0.023370722771212
  27     -0.14917181749324
  28     -0.46039556546484
  29      0.02684598773678
  30    0.00075811270930104
  31     -0.12666738370129
  32     -0.61539378991878
  33     -0.48891784441177
  34      0.12648443215573
  35      0.61547505934232
  36      0.48908662450697
 Sym= A
 Ene=    0.3937292115
 Spin= Alpha
 Occup=    0.00000
   1    -0.030384795110781
   2      0.19398815131642
   3     0.061204580788156
   4     -0.53740768348633
   5     0.013443334506965
   6    -0.010049855984826
   7     0.064118783462397
   8    -0.0039297186946824
   9     -0.34583353568993
  10    0.0087934333203196
  11     0.020473973410836
  12     -0.13067990268985
  13      0.19424589751465
  14     -0.38521983491755
  15    0.0091744746676345
  16     0.030421570097681
  17     -0.19420581214115
  18     0.060682880649394
  19     -0.53731981265997
  20     0.013442516509737
  21    0.0098568158307601
  22     -0.06298112944956
  23    -0.0041565681276509
  24     -0.34615664198486
  25    0.0088024750659154
  26     -0.02031922906539
  27       0.1297672208279
  28      0.19432407918872
  29      -0.3856480020347
  30    0.0091849901471849
  31     -0.63770337801627
  32     -0.20934844920519
  33      0.42848932025087
  34      0.63774374202922
  35      0.20906905511831
  36     -0.42826027907655
 Sym= A
 Ene=    0.4451486911
 Spin= Alpha
 Occup=    0.00000
   1      0.12126703207265
   2     -0.73665357930485
   3    0.0001230762594392
   4     0.057950159924004
   5    -0.0014685872560309
   6     -0.12127141933586
   7       0.7366834912905
   8    -0.050306775375045
   9    -0.029193759362444
  10    0.0008925819130577
  11       0.1212397303343
  12     -0.73648619922602
  13     0.050231836632884
  14     -0.02912834953345
  15    0.0005777127721164
  16     -0.12121782216011
  17      0.73635151393832
  18    -0.00011198542718478
  19     0.057964111540761
  20    -0.0014682383632506
  21      0.12121514360393
  22     -0.73633742209711
  23    -0.050398319205269
  24    -0.029010578851962
  25    0.00088823832341535
  26     -0.12123363084176
  27      0.73644911768938
  28     0.050203210059419
  29    -0.029126970592324
  30    0.00057774380819063
  31      0.44428784784094
  32     -0.44448656758988
  33      0.44429867935456
  34     -0.44415430706426
  35      0.44430688759191
  36     -0.44426184861457
 Sym= A
 Ene=     0.456238587
 Spin= Alpha
 Occup=    0.00000
   1      0.13783901386322
   2     -0.86229616154575
   3      0.23241991490381
   4    -0.033923707117402
   5    0.00013664431448493
   6     -0.14629648354213
   7      0.91521237307791
   8      0.12820387300122
   9     -0.15033816746067
  10    0.0034070292228352
  11    0.0083897096733153
  12    -0.052479638415033
  13      0.21129494080004
  14       0.3704662534184
  15    -0.010062049335014
  16       0.1378370503127
  17     -0.86227530395654
  18     -0.23230349951269
  19     0.034294799160945
  20    -0.00014635806709956
  21     -0.14630916347822
  22      0.91528581460627
  23     -0.12834530553065
  24      0.15014969034047
  25    -0.0034017695532015
  26    0.0085169044610935
  27    -0.053281521850108
  28      -0.2118526397784
  29     -0.37012769520648
  30     0.010055209723268
  31      0.38953972393047
  32     -0.41335397032873
  33     0.023279733671953
  34      0.38918284641761
  35     -0.41319135781133
  36     0.024308922234383
 Sym= A
 Ene=    0.4562473531
 Spin= Alpha
 Occup=    0.00000
   1     0.089310673582066
   2     -0.55870614712822
   3     -0.35849258385285
   4    -0.022028784792617
   5    0.0016792728953678
   6     0.074667553670311
   7     -0.46710407391668
   8       0.1737683871067
   9     -0.33879948528551
  10    0.0080597833941697
  11     -0.16404901903679
  12       1.0262689773001
  13     0.046034199352126
  14    -0.001132722706138
  15    -0.00010685303195147
  16      0.08937544072253
  17     -0.55912453615082
  18      0.35857591357486
  19     0.021448710046662
  20    -0.0016647687996919
  21     0.074743178654869
  22     -0.46759003713524
  23     -0.17427336114047
  24      0.33850386879012
  25    -0.0080507202969761
  26     -0.16404829172957
  27         1.02626418053
  28    -0.045986277184859
  29     0.001197369529762
  30    0.00010506934267753
  31      0.25204779006524
  32      0.21058122826192
  33     -0.46340752461346
  34      0.25281555890675
  35      0.21137626593487
  36     -0.46341948355986
 Sym= A
 Ene=    0.5815094995
 Spin= Alpha
 Occup=    0.00000
   1    0.0099398459421015
   2    -0.068701923455781
   3      0.21104065410778
   4     -0.26273649770857
   5    0.0060077417624122
   6    -0.028291902172707
   7      0.19564463650431
   8      0.66167696870679
   9      0.42514433776372
  10    -0.012859344888524
  11     0.018538032203189
  12     -0.12820472506877
  13     -0.36971455731858
  14       0.4050919517793
  15    -0.0091312390511802
  16    0.0090708935645075
  17    -0.062744923932657
  18     -0.20873903779115
  19       0.2636375256661
  20    -0.0060377975639728
  21    -0.028475687581402
  22      0.19690906455624
  23     -0.65783883251371
  24     -0.43137862175784
  25     0.013005763238335
  26     0.019205127758134
  27     -0.13278183744869
  28      0.36658276816962
  29     -0.40906604436948
  30    0.0092419243543552
  31     -0.17810388259215
  32      0.53632729046367
  33     -0.35765710171364
  34     -0.18101665381438
  35      0.53570641016777
  36     -0.35541052556351
 Sym= A
 Ene=    0.5815260575
 Spin= Alpha
 Occup=    0.00000
   1    -0.027158234017979
   2      0.18779532236004
   3     0.069792259447577
   4      0.75511690084295
   5    -0.019379291323107
   6    0.0058937610245401
   7    -0.040730690639796
   8     -0.23882254013927
   9       0.1154395913933
  10    -0.0021866136101418
  11     0.022225813724293
  12     -0.15367272026664
  13     -0.59815818539519
  14      0.17433476482407
  15    -0.0025569427387555
  16    -0.027461088926025
  17      0.18987218752332
  18    -0.077445698409139
  19     -0.75480876826288
  20     0.019395219240982
  21    0.0049422883652135
  22    -0.034201889085424
  23       0.2388575853692
  24     -0.11348967769138
  25     0.002137065234195
  26     0.021570298571235
  27     -0.14917302803014
  28      0.59575581310202
  29      -0.1798571679195
  30     0.002704540163715
  31      0.51575799005787
  32     -0.10053545808087
  33     -0.41195856354885
  34      0.51475590452179
  35     -0.10372380873871
  36     -0.41415831675925
 Sym= A
 Ene=    0.5900775916
 Spin= Alpha
 Occup=    0.00000
   1    -0.012131969701262
   2      0.08403517365242
   3      0.82308522054939
   4    -0.0052337583036722
   5    -0.0024368173092117
   6     -0.08884467143222
   7      0.61526849915117
   8      0.10335640759994
   9     -0.31135445722522
  10    0.0075733693073531
  11    -0.076847573139131
  12      0.53218382611651
  13      0.19921323443683
  14      0.46141593209147
  15    -0.012328931355564
  16     0.011745743536284
  17     -0.08132547486918
  18      0.82268399552962
  19    -0.013147991122787
  20    -0.0022347451513042
  21     0.088988460048927
  22     -0.61628242657537
  23       0.1069839863306
  24     -0.31195519701193
  25    0.0075772497489147
  26     0.077094794552368
  27     -0.53391532330255
  28      0.20455322216284
  29      0.46058648217459
  30    -0.012324600532586
  31    -0.034085572665332
  32     -0.27376095924046
  33     -0.23785361903749
  34     0.039229798675927
  35      0.27193452559387
  36      0.23459187426475
 Sym= A
 Ene=     0.590121649
 Spin= Alpha
 Occup=    0.00000
   1     0.095737402470373
   2     -0.66302180756331
   3      0.10147755299296
   4     0.069983899141985
   5    -0.0020985157590134
   6     0.037729286626523
   7     -0.26130879885593
   8      0.40249278328602
   9     -0.65016227715978
  10     0.015251264570739
  11    -0.058383683950772
  12      0.40434826174037
  13     -0.36534666093326
  14     -0.55338007674793
  15     0.015193861282795
  16    -0.095789835120624
  17      0.66339269594971
  18      0.10380132213696
  19     0.068996938062387
  20    -0.0020808008999232
  21    -0.037384845459995
  22      0.25889358761816
  23      0.40804320660369
  24      -0.6459376116344
  25     0.015126654021317
  26     0.058093387272905
  27     -0.40231202028726
  28     -0.36976472308092
  29     -0.54916252377913
  30     0.015100606167022
  31      0.29415482987364
  32      0.11299274870916
  33     -0.17674389084203
  34     -0.29353013539594
  35     -0.11746041662982
  36      0.18060212741103
 Sym= A
 Ene=    0.7424329585
 Spin= Alpha
 Occup=    0.00000
   1    -5.1529080596037e-05
   2    0.00033153134106641
   3     -0.74514675803457
   4    0.0011461555044568
   5    0.0022979039362668
   6    3.2587268998233e-05
   7    -0.00019192060052818
   8      -0.3728415245841
   9      0.64512198807738
  10     -0.01521303510759
  11    -2.946571369861e-05
  12    0.00017225101058178
  13      0.37343519149155
  14      0.64468790039785
  15    -0.017532483985176
  16    4.1968867988741e-05
  17    -0.00026444507124564
  18      0.74516008211998
  19    0.00019771983616843
  20    -0.0023320802626771
  21    -5.9408737743637e-05
  22    0.00039415233761415
  23      0.37167116210134
  24     -0.64581540049613
  25     0.015234220380578
  26    6.5459572739037e-05
  27    -0.00043894479182461
  28     -0.37225893544776
  29     -0.64537032215932
  30     0.017546243956789
  31    0.00032188233160826
  32    -0.00032955152409252
  33    0.00030984942924418
  34    -0.00030274355472587
  35    0.00032042261478151
  36    -0.00032464395644471
 Sym= A
 Ene=    0.7964143003
 Spin= Alpha
 Occup=    0.00000
   1    -0.061168223066162
   2      0.44545944258013
   3    0.0011823949812842
   4      0.66465154093771
   5    -0.016870913558744
   6     0.061162048158357
   7     -0.44542011956071
   8     -0.57551879385846
   9     -0.33260768623039
  10     0.010243338031337
  11    -0.061166142709952
  12      0.44545122575057
  13      0.57523325802266
  14     -0.33325036749752
  15    0.0066663686432214
  16     0.061167528172135
  17     -0.44545574207707
  18    -0.00042111415128423
  19      0.66466030103355
  20    -0.016866023479154
  21    -0.061163373260843
  22      0.44543345713032
  23     -0.57632561103518
  24     -0.33124031930777
  25     0.010211235589198
  26     0.061166748489815
  27     -0.44545426013366
  28      0.57605217854837
  29     -0.33188351623638
  30    0.0066290757776738
  31      0.27477363436115
  32     -0.27473838844449
  33      0.27474977341241
  34     -0.27478273897875
  35      0.27474697013042
  36     -0.27476760770716
