22

N      0.602940   -1.633295   -0.252701
C      0.297336   -0.339324   -0.063959
C      1.270431    0.609881    0.163792
C      2.597630    0.172475    0.191274
C      2.900013   -1.174155   -0.006315
C      1.882140   -2.081675   -0.230591
N      3.660219    1.085333    0.419760
C     -1.105752    0.070821   -0.101538
N     -1.464235    1.349208    0.090670
C     -2.747708    1.767171    0.063663
C     -3.759553    0.850725   -0.171882
C     -3.426504   -0.473202   -0.373886
C     -2.104092   -0.846543   -0.336201
H      1.074860    1.649803    0.319195
H      3.918659   -1.547209    0.008674
H      2.065133   -3.124059   -0.387350
H      3.728909    2.029768   -0.006115
H      4.426179    0.752165    1.077761
H     -3.002826    2.811129    0.223527
H     -4.797409    1.190334   -0.193445
H     -4.179457   -1.225233   -0.561221
H     -1.835557   -1.891118   -0.495123
