22

N      0.776496   -1.607982   -0.078874
C      0.303537   -0.342848   -0.020584
C      1.215314    0.682297   -0.001517
C      2.576273    0.508984   -0.037681
C      3.032236   -0.810895   -0.097678
C      2.104644   -1.850801   -0.116971
N      3.501586    1.606978   -0.016084
C     -1.131647   -0.093818    0.020108
N     -1.635772    0.924647   -0.700623
C     -2.977580    1.178528   -0.679082
C     -3.824488    0.394674    0.079939
C     -3.292980   -0.649998    0.816841
C     -1.938987   -0.900208    0.790378
H      0.842615    1.691672    0.044871
H      4.088482   -1.020192   -0.128568
H      2.488763   -2.861299   -0.163695
H      4.413981    1.509583    0.494546
H      3.308144    2.515212   -0.492408
H     -3.403162    2.003961   -1.260401
H     -4.896484    0.585502    0.106628
H     -3.916767   -1.302941    1.435605
H     -1.518783   -1.718365    1.366838
