22
XYZ from PySCF
N           0.57447325       -1.60973437       -0.65305485
C           0.30807901       -0.35867530       -0.08456817
C           1.28064851        0.53012427        0.41434191
C           2.64760991        0.15354969        0.38556158
C           2.96455787       -1.11838827       -0.16213627
C           1.92640729       -1.92782085       -0.65080698
N           3.65829190        0.98397750        0.97474005
C          -1.14923478        0.06794846       -0.11273367
N          -1.38190488        1.41164291       -0.41884633
C          -2.72722248        1.74522739       -0.48246654
C          -3.79895003        0.85089174       -0.28372573
C          -3.51425133       -0.49885286       -0.00100210
C          -2.16921061       -0.89625858        0.07854640
H           0.97038233        1.50671086        0.80559688
H           4.00683153       -1.45632114       -0.21025844
H           2.17266155       -2.90838760       -1.09171271
H           3.39903001        1.99914204        0.93910033
H           4.59340688        0.84595293        0.52139969
H          -2.93336338        2.80212279       -0.72052650
H          -4.83457887        1.20695693       -0.35757087
H          -4.32454989       -1.22514505        0.14965981
H          -1.88345808       -1.93748030        0.27718116
