22
XYZ from PySCF
N           0.53722081       -1.73776932       -0.25413592
C           0.30705313       -0.36634739       -0.08683402
C           1.31085946        0.60439111        0.10112453
C           2.67068000        0.20544246        0.13240285
C           2.95103828       -1.17758191       -0.03313179
C           1.88259363       -2.07123038       -0.21666783
N           3.72543827        1.17253289        0.22701536
C          -1.14649543        0.06210993       -0.11420325
N          -1.38957742        1.42783999        0.06246350
C          -2.73225357        1.76749638        0.02744065
C          -3.79731547        0.86270342       -0.16509650
C          -3.50431351       -0.50385529       -0.33850881
C          -2.15999696       -0.90781253       -0.31241183
H           1.01028741        1.65262184        0.22225068
H           3.98612322       -1.53962762       -0.01598880
H           2.09849549       -3.14546804       -0.34325940
H           3.42297194        2.03437879        0.74099490
H           4.58549993        0.77747421        0.67738874
H          -2.94499005        2.84088424        0.16477187
H          -4.83298117        1.22595264       -0.17821980
H          -4.30868924       -1.23641223       -0.49086315
H          -1.85038328       -1.95382411       -0.44006083
