22
XYZ from PySCF
N           0.45179716       -1.75722481       -0.00319955
C           0.29418063       -0.36675458        0.05578485
C           1.35001014        0.56625946        0.04613175
C           2.68871760        0.10698230       -0.03207594
C           2.89519937       -1.29711913       -0.09911629
C           1.77933857       -2.15054115       -0.08171277
N           3.78371515        1.02731857       -0.14066362
C          -1.13508911        0.12704506        0.15903740
N          -1.29911710        1.49136099        0.41840905
C          -2.62309527        1.88941137        0.51063654
C          -3.74140423        1.04110583        0.37009910
C          -3.52728176       -0.32744847        0.11591024
C          -2.20554287       -0.78905987        0.01026416
H           1.10702706        1.63427808        0.10931377
H           3.91100807       -1.70604651       -0.15995662
H           1.93841895       -3.24103896       -0.12790693
H           4.67256382        0.63074765        0.24859706
H           3.57379695        1.94189795        0.32658746
H          -2.77359227        2.96278518        0.71431949
H          -4.75662729        1.44831623        0.46078387
H          -4.37451337       -1.01768374        0.00343018
H          -1.95782867       -1.84206064       -0.17947291
