21

C      3.474275    0.754343    0.446982
C      2.067849    0.272509    0.663038
O      1.608830    0.194842    1.824688
O      1.311806   -0.077770   -0.471945
C      0.003892   -0.529090   -0.315250
C     -0.205819   -1.900338   -0.156616
C     -1.463692   -2.417851    0.002665
C     -2.571841   -1.566906    0.008655
C     -2.350112   -0.208091   -0.149714
C     -1.087030    0.311908   -0.309688
C     -0.882230    1.749364   -0.474729
O      0.279492    2.198282   -0.618870
O     -1.966178    2.612796   -0.472058
H      4.086684    0.364117    1.285087
H      3.877525    0.339692   -0.491268
H      3.474699    1.850196    0.389315
H      0.639768   -2.582487   -0.157818
H     -1.646427   -3.472240    0.126444
H     -3.576312   -1.953287    0.133086
H     -3.208639    0.436073   -0.143522
H     -1.866541    3.623935   -0.458722
