15

C     -2.035546    0.053554   -0.083507
C     -1.352666    1.253495   -0.081650
C      0.035368    1.182172   -0.030170
C      0.707411   -0.023132    0.017003
C      2.207581   -0.076437    0.072193
C     -0.025762   -1.193129    0.012761
C     -1.405189   -1.174387   -0.037409
H     -3.112333    0.074783   -0.122795
H     -1.868495    2.221815   -0.118677
H      0.576482    2.108063   -0.028227
H      2.666814   -0.212984   -0.912878
H      2.611059    0.884344    0.494424
H      2.523974   -0.860883    0.811577
H      0.461767   -2.158423    0.048710
H     -1.990465   -2.078853   -0.041355
