22

C      3.479618   -0.155472   -0.312761
C      2.886079   -0.690207    0.835231
C      1.520101   -0.594724    0.907269
C      0.729118   -0.018384   -0.060391
C      1.318104    0.512663   -1.199169
C      2.698196    0.429113   -1.297494
C     -0.726130    0.065722    0.030683
C     -1.256051    1.199553    0.641017
C     -2.646401    1.303979    0.749594
C     -3.487182    0.320625    0.270874
C     -2.916968   -0.800676   -0.335601
C     -1.567578   -0.920604   -0.450455
H      4.562046   -0.184457   -0.458819
H      3.481980   -1.146052    1.608731
H      1.040796   -0.998992    1.784371
H      0.698087    0.966703   -1.962525
H      3.187612    0.842514   -2.187473
H     -0.595817    1.950467    1.006873
H     -3.062272    2.202799    1.233533
H     -4.555124    0.445213    0.376022
H     -3.569399   -1.597536   -0.725164
H     -1.133733   -1.802501   -0.926954
