22

C      3.494860   -0.170493   -0.064180
C      2.837032    0.934753   -0.562984
C      1.441950    0.998618   -0.632158
C      0.737826   -0.113310   -0.170869
C      1.368732   -1.230854    0.332419
C      2.758452   -1.237648    0.376664
C     -0.716572   -0.027845   -0.251475
C     -1.331572    1.200764   -0.108959
C     -2.702401    1.355704   -0.171566
C     -3.460831    0.234296   -0.383669
C     -2.905701   -1.035217   -0.535909
C     -1.525110   -1.125432   -0.463280
H      4.575560   -0.145612   -0.044753
H      3.406918    1.803877   -0.923934
H      0.965831    1.873196   -1.027140
H      0.802010   -2.086808    0.684724
H      3.318082   -2.095160    0.764433
H     -0.756034    2.121556    0.063301
H     -3.146725    2.348193   -0.051689
H     -4.540620    0.380349   -0.429335
H     -3.547166   -1.888016   -0.700997
H     -1.074520   -2.094909   -0.577114
