22

N      0.602940   -1.633295   -0.252701
C      0.297336   -0.339324   -0.063959
C      1.270431    0.609881    0.163792
C      2.597630    0.172475    0.191274
C      2.900013   -1.174155   -0.006315
C      1.882140   -2.081675   -0.230591
N      3.660219    1.085333    0.419760
C     -1.105752    0.070821   -0.101538
N     -1.463505    1.350823    0.081042
C     -2.746952    1.768844    0.053684
C     -3.759550    0.850731   -0.171916
C     -3.427264   -0.474883   -0.363857
C     -2.104844   -0.848207   -0.326281
H      1.074860    1.649803    0.319195
H      3.918659   -1.547209    0.008674
H      2.065133   -3.124059   -0.387350
H      3.728909    2.029768   -0.006115
H      4.426179    0.752165    1.077761
H     -3.001467    2.814137    0.205595
H     -4.797384    1.190390   -0.193777
H     -4.180822   -1.228253   -0.543217
H     -1.836910   -1.894111   -0.477277
