352
H144 C160 N48
H 15.418239 7.121915 2.779442
H 22.356210 9.522613 1.225292
H 13.017540 14.059886 4.333592
H 8.164261 4.669335 2.779442
H 3.626989 18.913165 5.887742
H 10.564960 21.313863 4.333592
H 1.226290 2.268636 1.225292
H 19.955512 16.460585 5.887742
H 8.164262 16.460585 3.437158
H 1.226290 14.059887 4.991308
H 10.564960 9.522614 1.883008
H 15.418239 18.913165 3.437158
H 19.955512 4.669335 0.328858
H 13.017540 2.268636 1.883008
H 22.356210 21.313864 4.991308
H 3.626988 7.121915 0.328858
H 13.880660 5.459349 2.293925
H 0.436276 7.985035 0.739775
H 11.354974 15.597466 3.848075
H 9.701841 6.331901 2.293925
H 2.089410 17.250599 5.402225
H 12.227526 19.776284 3.848075
H 23.146224 3.806215 0.739775
H 21.493091 18.123151 5.402225
H 9.701841 18.123151 3.922675
H 23.146224 15.597466 5.476825
H 12.227526 7.985035 2.368525
H 13.880660 17.250599 3.922675
H 21.493091 6.331901 0.814375
H 11.354974 3.806215 2.368525
H 0.436276 19.776284 5.476825
H 2.089410 5.459349 0.814375
H 13.342978 3.914695 3.935108
H 1.980930 7.447353 2.380958
H 9.810320 16.135147 5.489258
H 10.239522 7.876555 3.935108
H 1.551728 15.705945 0.826808
H 13.772180 19.238603 5.489258
H 21.601570 4.343897 2.380958
H 22.030772 19.667805 0.826808
H 10.239522 19.667805 2.281492
H 21.601570 16.135147 3.835642
H 13.772180 7.447353 0.727342
H 13.342979 15.705945 2.281492
H 22.030772 7.876555 5.389792
H 9.810320 4.343897 0.727342
H 1.980930 19.238603 3.835642
H 1.551728 3.914695 5.389792
H 14.364101 4.067981 5.967314
H 1.827644 8.468476 4.413164
H 9.963606 15.114024 1.304864
H 9.218399 7.723269 5.967314
H 2.572851 15.859231 2.859014
H 13.618894 20.259726 1.304864
H 21.754856 3.322774 4.413164
H 21.009649 19.514519 2.859014
H 9.218399 19.514519 0.249286
H 21.754856 15.114024 1.803436
H 13.618894 8.468476 4.911736
H 14.364101 15.859231 0.249286
H 21.009649 7.723269 3.357586
H 9.963606 3.322774 4.911736
H 1.827644 20.259726 1.803436
H 2.572851 4.067981 3.357586
H 17.304838 6.853075 0.603010
H 22.625051 11.409213 5.265460
H 12.748700 12.173286 2.157160
H 6.277662 4.938175 0.603010
H 5.513589 18.644324 3.711310
H 10.833801 23.200464 2.157160
H 0.957449 0.382036 5.265460
H 18.068912 16.729426 3.711310
H 6.277662 16.729426 5.613590
H 0.957450 12.173286 0.951140
H 10.833801 11.409213 4.059440
H 17.304839 18.644324 5.613590
H 18.068911 4.938175 2.505290
H 12.748699 0.382036 4.059440
H 22.625051 23.200464 0.951140
H 5.513589 6.853075 2.505290
H 19.151348 10.246596 5.721137
H 19.231529 13.255723 4.166987
H 16.142221 10.326777 1.058687
H 4.431152 1.544654 5.721137
H 7.360098 22.037846 2.612837
H 7.440279 1.464473 1.058687
H 4.350971 22.118027 4.166987
H 16.222402 13.335904 2.612837
H 4.431152 13.335904 0.495463
H 4.350971 10.326777 2.049613
H 7.440279 13.255723 5.157913
H 19.151348 22.037846 0.495463
H 16.222402 1.544654 3.603763
H 16.142221 22.118027 5.157913
H 19.231529 1.464473 2.049613
H 7.360098 10.246596 3.603763
H 17.868460 10.239521 3.852427
H 19.238604 11.972835 2.298277
H 16.135147 11.609665 5.406577
H 5.714040 1.551729 3.852427
H 6.077210 22.030771 0.744127
H 7.447354 0.181585 5.406577
H 4.343897 23.400915 2.298277
H 17.505290 13.342979 0.744127
H 5.714040 13.342979 2.364173
H 4.343897 11.609665 3.918323
H 7.447354 11.972835 0.810023
H 17.868460 22.030771 2.364173
H 17.505290 1.551729 5.472473
H 16.135147 23.400915 0.810023
H 19.238603 0.181585 3.918323
H 6.077210 10.239521 5.472473
H 19.752702 9.227832 1.721998
H 20.250293 13.857077 0.167848
H 15.123457 9.725423 3.276148
H 3.829798 2.563418 1.721998
H 7.961452 21.019082 4.830298
H 8.459043 2.065827 3.276148
H 3.332207 21.516673 0.167848
H 15.621048 14.354668 4.830298
H 3.829798 14.354668 4.494602
H 3.332207 9.725423 6.048752
H 8.459043 13.857077 2.940452
H 19.752702 21.019082 4.494602
H 15.621048 2.563418 1.386302
H 15.123457 21.516673 2.940452
H 20.250293 2.065827 6.048752
H 7.961452 9.227832 1.386302
H 18.960330 7.796374 2.132294
H 21.681751 13.064705 0.578144
H 13.692000 10.517795 3.686444
H 4.622170 3.994876 2.132294
H 7.169080 19.587625 5.240594
H 9.890500 1.273455 3.686444
H 1.900750 22.309045 0.578144
H 16.413420 15.786125 5.240594
H 4.622170 15.786125 4.084306
H 1.900750 10.517795 5.638456
H 9.890501 13.064705 2.530156
H 18.960330 19.587625 4.084306
H 16.413420 3.994876 0.976006
H 13.692000 22.309045 2.530156
H 21.681750 1.273455 5.638456
H 7.169080 7.796374 0.976006
C 15.757591 6.542021 4.689181
C 22.936104 9.861966 3.135031
C 12.437646 13.720534 0.026731
C 7.824909 5.249229 4.689181
C 3.966341 18.333271 1.580881
C 11.144854 21.653216 0.026731
C 0.646396 1.929284 3.135031
C 19.616159 17.040479 1.580881
C 7.824909 17.040479 1.527419
C 0.646396 13.720534 3.081569
C 11.144854 9.861966 6.189869
C 15.757591 18.333271 1.527419
C 19.616159 5.249229 4.635719
C 12.437646 1.929284 6.189869
C 22.936104 21.653216 3.081569
C 3.966341 6.542021 4.635719
C 15.186658 6.492498 3.424103
C 22.985627 9.291033 1.869953
C 12.388123 14.291467 4.978253
C 8.395842 5.298752 3.424103
C 3.395408 18.283748 0.315803
C 11.194377 21.082283 4.978253
C 0.596873 2.500217 1.869953
C 20.187092 17.090002 0.315803
C 8.395842 17.090002 2.792497
C 0.596873 14.291467 4.346647
C 11.194377 9.291033 1.238347
C 15.186658 18.283748 2.792497
C 20.187092 5.298752 5.900797
C 12.388123 2.500217 1.238347
C 22.985627 21.082283 4.346647
C 3.395408 6.492498 5.900797
C 14.276610 5.505570 3.134410
C 0.390055 8.380985 1.580260
C 11.401195 15.201515 4.688560
C 9.305890 6.285680 3.134410
C 2.485360 17.296820 0.026110
C 12.181305 20.172235 4.688560
C 23.192445 3.410265 1.580260
C 21.097140 18.076930 0.026110
C 9.305890 18.076930 3.082190
C 23.192445 15.201515 4.636340
C 12.181305 8.380985 1.528040
C 14.276610 17.296820 3.082190
C 21.097140 6.285680 6.190490
C 11.401195 3.410265 1.528040
C 0.390055 20.172235 4.636340
C 2.485360 5.505570 6.190490
C 13.960840 4.590334 4.099848
C 1.305291 8.065215 2.545698
C 10.485959 15.517285 5.653998
C 9.621660 7.200916 4.099848
C 2.169590 16.381584 0.991548
C 13.096541 19.856465 5.653998
C 22.277209 3.726035 2.545698
C 21.412910 18.992166 0.991548
C 9.621660 18.992166 2.116752
C 22.277209 15.517285 3.670902
C 13.096541 8.065215 0.562602
C 13.960840 16.381584 2.116752
C 21.412910 7.200916 5.225052
C 10.485959 3.726035 0.562602
C 1.305291 19.856465 3.670902
C 2.169590 4.590334 5.225052
C 14.578937 4.695747 5.315815
C 1.199878 8.683312 3.761665
C 10.591372 14.899188 0.653365
C 9.003563 7.095503 5.315815
C 2.787687 16.486997 2.207515
C 12.991128 20.474562 0.653365
C 22.382622 3.107938 3.761665
C 20.794813 18.886753 2.207515
C 9.003563 18.886753 0.900785
C 22.382622 14.899188 2.454935
C 12.991128 8.683312 5.563235
C 14.578937 16.486997 0.900785
C 20.794813 7.095503 4.009085
C 10.591372 3.107938 5.563235
C 1.199878 20.474562 2.454935
C 2.787687 4.695747 4.009085
C 16.728246 7.609365 5.049744
C 21.868760 10.832621 3.495594
C 13.504990 12.749879 0.387294
C 6.854254 4.181885 5.049744
C 4.936996 19.400615 1.941444
C 10.077510 22.623871 0.387294
C 1.713740 0.958629 3.495594
C 18.645504 15.973135 1.941444
C 6.854254 15.973135 1.166856
C 1.713740 12.749879 2.721006
C 10.077510 10.832621 5.829306
C 16.728246 19.400615 1.166856
C 18.645504 4.181885 4.275156
C 13.504990 0.958629 5.829306
C 21.868760 22.623871 2.721006
C 4.936996 7.609365 4.275156
C 17.442796 7.555361 0.009947
C 21.922764 11.547171 4.672397
C 13.450986 12.035329 1.564097
C 6.139704 4.235889 0.009947
C 5.651546 19.346611 3.118247
C 10.131514 23.338421 1.564097
C 1.659736 0.244079 4.672397
C 17.930954 16.027139 3.118247
C 6.139704 16.027139 6.206653
C 1.659736 12.035329 1.544203
C 10.131514 11.547171 4.652503
C 17.442796 19.346611 6.206653
C 17.930954 4.235889 3.098353
C 13.450986 0.244079 4.652503
C 21.922764 23.338421 1.544203
C 5.651546 7.555361 3.098353
C 18.373597 8.553373 0.315803
C 20.924752 12.477972 4.978253
C 14.448998 11.104528 1.869953
C 5.208903 3.237877 0.315803
C 6.582347 20.344623 3.424103
C 9.133502 0.686722 1.869953
C 2.657748 22.895778 4.978253
C 17.000153 15.029127 3.424103
C 5.208903 15.029127 5.900797
C 2.657748 11.104528 1.238347
C 9.133502 12.477972 4.346647
C 18.373597 20.344623 5.900797
C 17.000153 3.237877 2.792497
C 14.448998 22.895778 4.346647
C 20.924752 0.686722 1.238347
C 6.582347 8.553373 2.792497
C 18.530893 9.566713 5.587480
C 19.911412 12.635268 4.033330
C 15.462338 10.947232 0.925030
C 5.051607 2.224537 5.587480
C 6.739643 21.357963 2.479180
C 8.120162 0.844018 0.925030
C 3.671088 22.738482 4.033330
C 16.842857 14.015787 2.479180
C 5.051607 14.015787 0.629120
C 3.671088 10.947232 2.183270
C 8.120162 12.635268 5.291570
C 18.530893 21.357963 0.629120
C 16.842857 2.224537 3.737420
C 15.462338 22.738482 5.291570
C 19.911412 0.844018 2.183270
C 6.739643 9.566713 3.737420
C 17.756443 9.544545 4.459789
C 19.933580 11.860818 2.905639
C 15.440170 11.721682 6.013939
C 5.826057 2.246705 4.459789
C 5.965193 21.335795 1.351489
C 8.142330 0.069568 6.013939
C 3.648920 23.512932 2.905639
C 17.617307 14.037955 1.351489
C 5.826057 14.037955 1.756811
C 3.648920 11.721682 3.310961
C 8.142330 11.860818 0.202661
C 17.756443 21.335795 1.756811
C 17.617307 2.246705 4.865111
C 15.440170 23.512932 0.202661
C 19.933580 0.069568 3.310961
C 5.965193 9.544545 4.865111
N 15.470356 5.640934 5.631618
N 0.254691 9.574731 4.077468
N 11.536559 14.007769 0.969168
N 8.112144 6.150316 5.631618
N 3.679106 17.432184 2.523318
N 12.045941 21.365981 0.969168
N 23.327809 2.216519 4.077468
N 19.903394 17.941566 2.523318
N 8.112144 17.941566 0.584982
N 23.327809 14.007769 2.139132
N 12.045941 9.574731 5.247432
N 15.470356 17.432184 0.584982
N 19.903394 6.150316 3.693282
N 11.536559 2.216519 5.247432
N 0.254691 21.365981 2.139132
N 3.679106 5.640934 3.693282
N 16.852526 8.607848 4.156419
N 20.870277 10.956901 2.602269
N 14.503473 12.625599 5.710569
N 6.729974 3.183402 4.156419
N 5.061276 20.399098 1.048119
N 9.079027 22.748151 5.710569
N 2.712223 0.834349 2.602269
N 18.521224 14.974652 1.048119
N 6.729974 14.974652 2.060181
N 2.712223 12.625599 3.614331
N 9.079027 10.956901 0.506031
N 16.852526 20.399098 2.060181
N 18.521224 3.183402 5.168481
N 14.503473 0.834349 0.506031
N 20.870277 22.748151 3.614331
N 5.061276 8.607848 5.168481
N 19.088855 8.533799 1.468361
N 20.944326 13.193230 6.130811
N 14.429424 10.389270 3.022511
N 4.493645 3.257451 1.468361
N 7.297605 20.325049 4.576661
N 9.153076 1.401980 3.022511
N 2.638174 22.180520 6.130811
N 16.284895 15.048701 4.576661
N 4.493645 15.048701 4.748239
N 2.638174 10.389270 0.085789
N 9.153076 13.193230 3.194089
N 19.088855 20.325049 4.748239
N 16.284895 3.257451 1.639939
N 14.429424 22.180520 3.194089
N 20.944326 1.401980 0.085789
N 7.297605 8.533799 1.639939