22
XYZ from PySCF
N           0.53712593       -1.73870183       -0.24377940
C           0.30735248       -0.36614534       -0.08536053
C           1.31179452        0.60511395        0.09633145
C           2.67156578        0.20621375        0.12958831
C           2.95102464       -1.17796227       -0.02761451
C           1.88240085       -2.07261591       -0.20499342
N           3.72663145        1.17347325        0.21787828
C          -1.14610946        0.06264878       -0.11366684
N          -1.38935651        1.42804609        0.06505895
C          -2.73205086        1.76758465        0.02997721
C          -3.79710802        0.86308696       -0.16407244
C          -3.50402052       -0.50328165       -0.33904304
C          -2.15963915       -0.90699919       -0.31306268
H           1.01157826        1.65411951        0.21146332
H           3.98598531       -1.54026556       -0.00873549
H           2.09790312       -3.14771393       -0.32479018
H           3.42441229        2.03849364        0.72654889
H           4.58668331        0.78078651        0.67015116
H          -2.94487012        2.84076085        0.16884026
H          -4.83276274        1.22635419       -0.17698193
H          -4.30827982       -1.23576616       -0.49238283
H          -1.84996153       -1.95289519       -0.44146347
