22

C      3.494860   -0.170493   -0.064180
C      2.837032    0.934753   -0.562984
C      1.441950    0.998618   -0.632158
C      0.737826   -0.113310   -0.170869
C      1.368732   -1.230854    0.332419
C      2.758452   -1.237648    0.376664
C     -0.716572   -0.027845   -0.251475
C     -1.358191   -0.464375   -1.394184
C     -2.730365   -0.411326   -1.540541
C     -3.462419    0.097607   -0.499943
C     -2.879656    0.555409    0.680655
C     -1.499203    0.475743    0.766946
H      4.575560   -0.145612   -0.044753
H      3.406918    1.803877   -0.923934
H      0.965831    1.873196   -1.027140
H      0.802010   -2.086808    0.684724
H      3.318082   -2.095160    0.764433
H     -0.804097   -0.877437   -2.249249
H     -3.196075   -0.767100   -2.464319
H     -4.543791    0.129956   -0.637595
H     -3.500929    0.948050    1.471763
H     -1.027449    0.823763    1.668170
